LAMMPS data file: packed polymer system

2420 atoms
2710 bonds

4 atom types
4 bond types

0.000000 60.000000 xlo xhi
0.000000 60.000000 ylo yhi
0.000000 60.000000 zlo zhi

Masses

1 12.011000 # C
2 1.008000 # H
3 14.007000 # N
4 15.999000 # O

Atoms # full

1 1 3 0.000000 11.738000 37.922000 4.550000 # N
2 1 1 0.000000 12.072000 39.308000 4.638000 # C
3 1 1 0.000000 12.685000 36.856000 4.665000 # C
4 1 1 0.000000 10.506000 37.346000 4.993000 # C
5 1 1 0.000000 12.023000 35.640000 5.131000 # C
6 1 4 0.000000 13.916000 36.973000 4.429000 # O
7 1 1 0.000000 10.694000 35.935000 5.321000 # C
8 1 4 0.000000 9.422000 37.982000 5.089000 # O
9 1 1 0.000000 12.527000 34.364000 5.366000 # C
10 1 1 0.000000 9.780000 34.970000 5.736000 # C
11 1 1 0.000000 11.622000 33.350000 5.762000 # C
12 1 1 0.000000 10.250000 33.665000 5.947000 # C
13 1 1 0.000000 12.095000 31.959000 5.911000 # C
14 1 1 0.000000 11.447000 30.923000 5.221000 # C
15 1 1 0.000000 13.234000 31.661000 6.678000 # C
16 1 1 0.000000 11.957000 29.623000 5.250000 # C
17 1 1 0.000000 13.729000 30.353000 6.728000 # C
18 1 1 0.000000 13.110000 29.325000 5.992000 # C
19 1 3 0.000000 13.725000 28.021000 5.908000 # N
20 1 1 0.000000 15.110000 27.815000 5.599000 # C
21 1 1 0.000000 13.092000 26.820000 5.435000 # C
22 1 1 0.000000 15.299000 26.534000 4.934000 # C
23 1 4 0.000000 16.020000 28.661000 5.803000 # O
24 1 1 0.000000 14.072000 25.933000 4.816000 # C
25 1 4 0.000000 11.869000 26.561000 5.576000 # O
26 1 1 0.000000 16.443000 25.984000 4.369000 # C
27 1 1 0.000000 13.909000 24.749000 4.095000 # C
28 1 1 0.000000 16.319000 24.782000 3.643000 # C
29 1 1 0.000000 15.048000 24.172000 3.498000 # C
30 1 1 0.000000 17.524000 24.187000 3.040000 # C
31 1 1 0.000000 17.605000 23.979000 1.654000 # C
32 1 1 0.000000 18.654000 23.972000 3.839000 # C
33 1 1 0.000000 18.837000 23.654000 1.065000 # C
34 1 1 0.000000 19.868000 23.627000 3.253000 # C
35 1 1 0.000000 19.984000 23.500000 1.857000 # C
36 1 3 0.000000 21.289000 23.500000 1.251000 # N
37 1 1 0.000000 21.862000 24.774000 0.941000 # C
38 1 1 0.000000 22.385000 22.819000 1.877000 # C
39 1 1 0.000000 23.171000 24.937000 1.557000 # C
40 1 4 0.000000 21.244000 25.688000 0.333000 # O
41 1 1 0.000000 23.497000 23.728000 2.126000 # C
42 1 4 0.000000 22.324000 21.631000 2.289000 # O
43 1 1 0.000000 23.728000 26.127000 2.017000 # C
44 1 1 0.000000 24.448000 23.639000 3.138000 # C
45 1 1 0.000000 24.600000 26.086000 3.130000 # C
46 1 1 0.000000 25.015000 24.822000 3.626000 # C
47 1 1 0.000000 24.786000 27.303000 3.971000 # C
48 1 1 0.000000 25.927000 27.465000 4.781000 # C
49 1 1 0.000000 23.703000 28.185000 4.150000 # C
50 1 1 0.000000 25.926000 28.402000 5.824000 # C
51 1 1 0.000000 23.716000 29.131000 5.170000 # C
52 1 1 0.000000 24.804000 29.214000 6.053000 # C
53 1 3 0.000000 24.658000 29.914000 7.301000 # N
54 1 1 0.000000 24.401000 29.148000 8.487000 # C
55 1 1 0.000000 23.754000 31.027000 7.455000 # C
56 1 1 0.000000 23.267000 29.682000 9.228000 # C
57 1 4 0.000000 25.036000 28.108000 8.800000 # O
58 1 1 0.000000 22.876000 30.837000 8.604000 # C
59 1 4 0.000000 23.636000 31.947000 6.608000 # O
60 1 1 0.000000 22.434000 29.019000 10.126000 # C
61 1 1 0.000000 21.649000 31.435000 8.885000 # C
62 1 1 0.000000 21.162000 29.568000 10.401000 # C
63 1 1 0.000000 20.793000 30.797000 9.799000 # C
64 1 1 0.000000 20.173000 28.772000 11.162000 # C
65 1 1 0.000000 20.546000 28.121000 12.349000 # C
66 1 1 0.000000 18.879000 28.564000 10.646000 # C
67 1 1 0.000000 19.647000 27.276000 13.003000 # C
68 1 1 0.000000 17.987000 27.702000 11.293000 # C
69 1 1 0.000000 18.366000 27.055000 12.478000 # C
70 1 3 0.000000 17.453000 26.170000 13.142000 # N
71 1 1 0.000000 17.279000 26.036000 14.555000 # C
72 1 1 0.000000 16.897000 24.963000 12.603000 # C
73 1 1 0.000000 16.600000 24.787000 14.863000 # C
74 1 4 0.000000 17.643000 26.902000 15.400000 # O
75 1 1 0.000000 16.362000 24.129000 13.678000 # C
76 1 4 0.000000 16.917000 24.657000 11.380000 # O
77 1 1 0.000000 16.232000 24.251000 16.086000 # C
78 1 1 0.000000 15.739000 22.879000 13.656000 # C
79 1 1 0.000000 15.589000 22.992000 16.104000 # C
80 1 1 0.000000 15.340000 22.314000 14.883000 # C
81 1 1 0.000000 15.169000 22.424000 17.400000 # C
82 1 1 0.000000 13.851000 21.968000 17.596000 # C
83 1 1 0.000000 16.048000 22.464000 18.493000 # C
84 1 1 0.000000 13.395000 21.667000 18.884000 # C
85 1 1 0.000000 15.594000 22.161000 19.773000 # C
86 1 1 0.000000 14.249000 21.807000 19.993000 # C
87 1 3 0.000000 13.702000 21.834000 21.326000 # N
88 1 1 0.000000 12.789000 22.882000 21.676000 # C
89 1 1 0.000000 14.520000 21.739000 22.502000 # C
90 1 1 0.000000 13.164000 23.520000 22.928000 # C
91 1 4 0.000000 11.858000 23.276000 20.927000 # O
92 1 1 0.000000 14.235000 22.821000 23.438000 # C
93 1 4 0.000000 15.434000 20.883000 22.651000 # O
94 1 1 0.000000 12.919000 24.837000 23.297000 # C
95 1 1 0.000000 15.092000 23.392000 24.377000 # C
96 1 1 0.000000 13.812000 25.471000 24.184000 # C
97 1 1 0.000000 14.874000 24.728000 24.757000 # C
98 1 1 0.000000 13.853000 26.945000 24.161000 # C
99 1 1 0.000000 12.683000 27.686000 24.386000 # C
100 1 1 0.000000 14.952000 27.572000 23.549000 # C
101 1 1 0.000000 12.564000 28.981000 23.866000 # C
102 1 1 0.000000 14.821000 28.852000 23.008000 # C
103 1 1 0.000000 13.593000 29.536000 23.084000 # C
104 1 3 0.000000 13.300000 30.616000 22.174000 # N
105 1 1 0.000000 12.213000 30.512000 21.242000 # C
106 1 1 0.000000 14.287000 31.347000 21.421000 # C
107 1 1 0.000000 12.572000 31.073000 19.949000 # C
108 1 4 0.000000 11.124000 29.926000 21.482000 # O
109 1 1 0.000000 13.832000 31.594000 20.054000 # C
110 1 4 0.000000 15.405000 31.701000 21.879000 # O
111 1 1 0.000000 11.948000 30.906000 18.716000 # C
112 1 1 0.000000 14.532000 32.030000 18.928000 # C
113 1 1 0.000000 12.632000 31.305000 17.546000 # C
114 1 1 0.000000 13.918000 31.895000 17.668000 # C
115 1 1 0.000000 12.061000 30.962000 16.214000 # C
116 1 1 0.000000 12.878000 30.442000 15.195000 # C
117 1 1 0.000000 10.672000 31.023000 16.005000 # C
118 1 1 0.000000 12.311000 29.926000 14.022000 # C
119 1 1 0.000000 10.108000 30.493000 14.841000 # C
120 1 1 0.000000 10.916000 29.913000 13.854000 # C
121 1 3 0.000000 10.310000 29.218000 12.751000 # N
122 1 1 0.000000 9.361000 28.155000 12.887000 # C
123 1 1 0.000000 10.831000 29.053000 11.427000 # C
124 1 1 0.000000 9.302000 27.366000 11.663000 # C
125 1 4 0.000000 8.714000 27.908000 13.941000 # O
126 1 1 0.000000 10.188000 27.922000 10.767000 # C
127 1 4 0.000000 11.730000 29.776000 10.920000 # O
128 1 1 0.000000 8.622000 26.182000 11.380000 # C
129 1 1 0.000000 10.406000 27.356000 9.512000 # C
130 1 1 0.000000 8.842000 25.562000 10.129000 # C
131 1 1 0.000000 9.719000 26.172000 9.192000 # C
132 1 1 0.000000 8.252000 24.227000 9.842000 # C
133 1 1 0.000000 7.747000 23.927000 8.566000 # C
134 1 1 0.000000 8.279000 23.216000 10.818000 # C
135 1 1 0.000000 7.331000 22.626000 8.257000 # C
136 1 1 0.000000 7.874000 21.914000 10.504000 # C
137 1 1 0.000000 7.427000 21.600000 9.212000 # C
138 1 3 0.000000 7.230000 20.229000 8.812000 # N
139 1 1 0.000000 7.956000 19.626000 7.733000 # C
140 1 1 0.000000 6.947000 19.116000 9.680000 # C
141 1 1 0.000000 8.126000 18.199000 7.957000 # C
142 1 4 0.000000 8.463000 20.269000 6.775000 # O
143 1 1 0.000000 7.512000 17.882000 9.144000 # C
144 1 4 0.000000 6.310000 19.211000 10.765000 # O
145 1 1 0.000000 8.939000 17.287000 7.292000 # C
146 1 1 0.000000 7.647000 16.619000 9.717000 # C
147 1 1 0.000000 9.134000 16.008000 7.859000 # C
148 1 1 0.000000 8.466000 15.677000 9.065000 # C
149 1 1 0.000000 10.151000 15.097000 7.268000 # C
150 1 1 0.000000 11.104000 14.475000 8.090000 # C
151 1 1 0.000000 10.266000 14.975000 5.874000 # C
152 1 1 0.000000 12.185000 13.789000 7.526000 # C
153 1 1 0.000000 11.350000 14.293000 5.311000 # C
154 1 1 0.000000 12.336000 13.723000 6.131000 # C
155 1 3 0.000000 13.534000 13.164000 5.563000 # N
156 1 1 0.000000 14.872000 13.492000 5.969000 # C
157 1 1 0.000000 13.698000 12.622000 4.244000 # C
158 1 1 0.000000 15.821000 13.145000 4.921000 # C
159 1 4 0.000000 15.173000 14.063000 7.052000 # O
160 1 4 0.000000 12.755000 12.181000 3.537000 # O
161 1 1 0.000000 15.107000 12.621000 3.865000 # C
162 1 1 0.000000 17.203000 13.317000 4.853000 # C
163 1 1 0.000000 15.737000 12.232000 2.684000 # C
164 1 1 0.000000 17.861000 12.935000 3.672000 # C
165 1 1 0.000000 17.130000 12.398000 2.591000 # C
166 1 2 0.000000 18.934000 13.052000 3.592000 # H
167 1 1 0.000000 12.514000 39.999000 3.501000 # C
168 1 1 0.000000 11.978000 39.982000 5.868000 # C
169 1 1 0.000000 12.856000 41.352000 3.591000 # C
170 1 1 0.000000 12.326000 41.332000 5.958000 # C
171 1 1 0.000000 12.770000 42.018000 4.820000 # C
172 1 2 0.000000 13.043000 43.062000 4.894000 # H
173 1 2 0.000000 13.576000 34.149000 5.198000 # H
174 1 2 0.000000 8.735000 35.211000 5.881000 # H
175 1 2 0.000000 9.552000 32.895000 6.247000 # H
176 1 2 0.000000 10.577000 31.131000 4.610000 # H
177 1 2 0.000000 13.745000 32.445000 7.231000 # H
178 1 2 0.000000 11.475000 28.869000 4.644000 # H
179 1 2 0.000000 14.603000 30.150000 7.324000 # H
180 1 2 0.000000 17.394000 26.494000 4.465000 # H
181 1 2 0.000000 12.931000 24.299000 3.979000 # H
182 1 2 0.000000 14.941000 23.259000 2.928000 # H
183 1 2 0.000000 16.743000 24.150000 1.024000 # H
184 1 2 0.000000 18.606000 24.132000 4.914000 # H
185 1 2 0.000000 18.914000 23.589000 -0.010000 # H
186 1 2 0.000000 20.742000 23.553000 3.886000 # H
187 1 2 0.000000 23.347000 27.068000 1.635000 # H
188 1 2 0.000000 24.637000 22.696000 3.634000 # H
189 1 2 0.000000 25.650000 24.758000 4.497000 # H
190 1 2 0.000000 26.785000 26.812000 4.664000 # H
191 1 2 0.000000 22.788000 28.073000 3.582000 # H
192 1 2 0.000000 26.766000 28.435000 6.509000 # H
193 1 2 0.000000 22.820000 29.715000 5.335000 # H
194 1 2 0.000000 22.711000 28.041000 10.501000 # H
195 1 2 0.000000 21.322000 32.317000 8.351000 # H
196 1 2 0.000000 19.816000 31.225000 9.987000 # H
197 1 2 0.000000 21.534000 28.265000 12.765000 # H
198 1 2 0.000000 18.570000 29.039000 9.723000 # H
199 1 2 0.000000 19.962000 26.768000 13.909000 # H
200 1 2 0.000000 17.004000 27.538000 10.872000 # H
201 1 2 0.000000 16.418000 24.805000 16.997000 # H
202 1 2 0.000000 15.567000 22.357000 12.723000 # H
203 1 2 0.000000 14.849000 21.348000 14.887000 # H
204 1 2 0.000000 13.157000 21.921000 16.762000 # H
205 1 2 0.000000 17.074000 22.790000 18.365000 # H
206 1 2 0.000000 12.356000 21.406000 19.032000 # H
207 1 2 0.000000 16.279000 22.293000 20.601000 # H
208 1 2 0.000000 12.178000 25.412000 22.753000 # H
209 1 2 0.000000 15.985000 22.868000 24.701000 # H
210 1 2 0.000000 15.601000 25.215000 25.392000 # H
211 1 2 0.000000 11.822000 27.222000 24.855000 # H
212 1 2 0.000000 15.858000 27.014000 23.351000 # H
213 1 2 0.000000 11.618000 29.497000 23.963000 # H
214 1 2 0.000000 15.642000 29.243000 22.424000 # H
215 1 2 0.000000 10.998000 30.392000 18.669000 # H
216 1 2 0.000000 15.544000 32.397000 19.014000 # H
217 1 2 0.000000 14.462000 32.208000 16.788000 # H
218 1 2 0.000000 13.950000 30.367000 15.328000 # H
219 1 2 0.000000 10.017000 31.439000 16.758000 # H
220 1 2 0.000000 12.954000 29.469000 13.281000 # H
221 1 2 0.000000 9.032000 30.504000 14.724000 # H
222 1 2 0.000000 7.968000 25.743000 12.123000 # H
223 1 2 0.000000 11.111000 27.792000 8.818000 # H
224 1 2 0.000000 9.921000 25.696000 8.241000 # H
225 1 2 0.000000 7.695000 24.691000 7.800000 # H
226 1 2 0.000000 8.681000 23.416000 11.803000 # H
227 1 2 0.000000 6.974000 22.409000 7.258000 # H
228 1 2 0.000000 7.986000 21.146000 11.255000 # H
229 1 2 0.000000 9.485000 17.598000 6.412000 # H
230 1 2 0.000000 7.180000 16.386000 10.663000 # H
231 1 2 0.000000 8.609000 14.705000 9.519000 # H
232 1 2 0.000000 11.055000 14.570000 9.167000 # H
233 1 2 0.000000 9.544000 15.440000 5.217000 # H
234 1 2 0.000000 12.925000 13.341000 8.178000 # H
235 1 2 0.000000 11.445000 14.268000 4.232000 # H
236 1 2 0.000000 17.752000 13.743000 5.681000 # H
237 1 2 0.000000 15.173000 11.827000 1.854000 # H
238 1 2 0.000000 17.649000 12.111000 1.682000 # H
239 1 2 0.000000 12.582000 39.493000 2.547000 # H
240 1 2 0.000000 11.642000 39.456000 6.752000 # H
241 1 2 0.000000 13.199000 41.883000 2.712000 # H
242 1 2 0.000000 12.259000 41.848000 6.907000 # H
243 2 3 0.000000 3.505000 28.261000 1.766000 # N
244 2 1 0.000000 3.443000 29.684000 1.881000 # C
245 2 1 0.000000 4.618000 27.466000 2.187000 # C
246 2 1 0.000000 2.382000 27.381000 1.877000 # C
247 2 1 0.000000 4.177000 26.111000 2.506000 # C
248 2 4 0.000000 5.795000 27.897000 2.295000 # O
249 2 1 0.000000 2.818000 26.055000 2.307000 # C
250 2 4 0.000000 1.192000 27.720000 1.641000 # O
251 2 1 0.000000 4.899000 24.997000 2.928000 # C
252 2 1 0.000000 2.097000 24.880000 2.498000 # C
253 2 1 0.000000 4.202000 23.777000 3.104000 # C
254 2 1 0.000000 2.800000 23.730000 2.888000 # C
255 2 1 0.000000 4.947000 22.547000 3.441000 # C
256 2 1 0.000000 4.798000 21.400000 2.646000 # C
257 2 1 0.000000 5.864000 22.526000 4.506000 # C
258 2 1 0.000000 5.588000 20.271000 2.874000 # C
259 2 1 0.000000 6.636000 21.385000 4.749000 # C
260 2 1 0.000000 6.525000 20.254000 3.918000 # C
261 2 3 0.000000 7.444000 19.150000 4.065000 # N
262 2 1 0.000000 8.866000 19.309000 4.162000 # C
263 2 1 0.000000 7.289000 17.841000 3.491000 # C
264 2 1 0.000000 9.547000 18.136000 3.633000 # C
265 2 4 0.000000 9.442000 20.352000 4.571000 # O
266 2 1 0.000000 8.592000 17.248000 3.208000 # C
267 2 4 0.000000 6.181000 17.279000 3.300000 # O
268 2 1 0.000000 10.902000 17.909000 3.432000 # C
269 2 1 0.000000 8.938000 16.081000 2.524000 # C
270 2 1 0.000000 11.291000 16.734000 2.755000 # C
271 2 1 0.000000 10.304000 15.827000 2.292000 # C
272 2 1 0.000000 12.724000 16.480000 2.535000 # C
273 2 1 0.000000 13.238000 16.337000 1.237000 # C
274 2 1 0.000000 13.604000 16.535000 3.624000 # C
275 2 1 0.000000 14.625000 16.350000 1.026000 # C
276 2 1 0.000000 14.979000 16.524000 3.413000 # C
277 2 1 0.000000 15.507000 16.469000 2.110000 # C
278 2 3 0.000000 16.886000 16.814000 1.889000 # N
279 2 1 0.000000 17.185000 18.200000 1.692000 # C
280 2 1 0.000000 17.898000 16.416000 2.824000 # C
281 2 1 0.000000 18.187000 18.672000 2.638000 # C
282 2 4 0.000000 16.553000 18.944000 0.896000 # O
283 2 1 0.000000 18.633000 17.569000 3.329000 # C
284 2 4 0.000000 18.024000 15.240000 3.256000 # O
285 2 1 0.000000 18.277000 19.951000 3.179000 # C
286 2 1 0.000000 19.255000 17.695000 4.567000 # C
287 2 1 0.000000 18.786000 20.101000 4.491000 # C
288 2 1 0.000000 19.349000 18.970000 5.139000 # C
289 2 1 0.000000 18.420000 21.302000 5.295000 # C
290 2 1 0.000000 19.212000 21.725000 6.381000 # C
291 2 1 0.000000 17.145000 21.877000 5.128000 # C
292 2 1 0.000000 18.686000 22.603000 7.339000 # C
293 2 1 0.000000 16.636000 22.767000 6.067000 # C
294 2 1 0.000000 17.378000 23.098000 7.212000 # C
295 2 3 0.000000 16.720000 23.704000 8.339000 # N
296 2 1 0.000000 16.343000 22.866000 9.440000 # C
297 2 1 0.000000 15.561000 24.549000 8.186000 # C
298 2 1 0.000000 14.952000 23.076000 9.815000 # C
299 2 4 0.000000 17.105000 22.013000 9.963000 # O
300 2 1 0.000000 14.475000 24.112000 9.055000 # C
301 2 4 0.000000 15.458000 25.431000 7.299000 # O
302 2 1 0.000000 14.094000 22.200000 10.477000 # C
303 2 1 0.000000 13.109000 24.372000 8.960000 # C
304 2 1 0.000000 12.701000 22.402000 10.364000 # C
305 2 1 0.000000 12.220000 23.514000 9.629000 # C
306 2 1 0.000000 11.771000 21.362000 10.858000 # C
307 2 1 0.000000 11.949000 20.795000 12.130000 # C
308 2 1 0.000000 10.768000 20.848000 10.014000 # C
309 2 1 0.000000 11.145000 19.732000 12.547000 # C
310 2 1 0.000000 9.975000 19.772000 10.427000 # C
311 2 1 0.000000 10.158000 19.209000 11.699000 # C
312 2 3 0.000000 9.348000 18.104000 12.125000 # N
313 2 1 0.000000 8.826000 17.893000 13.439000 # C
314 2 1 0.000000 9.285000 16.811000 11.508000 # C
315 2 1 0.000000 8.424000 16.505000 13.603000 # C
316 2 4 0.000000 8.712000 18.799000 14.311000 # O
317 2 1 0.000000 8.698000 15.840000 12.430000 # C
318 2 4 0.000000 9.721000 16.554000 10.353000 # O
319 2 1 0.000000 7.875000 15.860000 14.699000 # C
320 2 1 0.000000 8.438000 14.474000 12.293000 # C
321 2 1 0.000000 7.588000 14.480000 14.596000 # C
322 2 1 0.000000 7.868000 13.794000 13.386000 # C
323 2 1 0.000000 6.980000 13.789000 15.750000 # C
324 2 1 0.000000 5.817000 13.009000 15.595000 # C
325 2 1 0.000000 7.481000 14.020000 17.040000 # C
326 2 1 0.000000 5.111000 12.568000 16.719000 # C
327 2 1 0.000000 6.778000 13.577000 18.158000 # C
328 2 1 0.000000 5.559000 12.888000 18.013000 # C
329 2 3 0.000000 4.674000 12.740000 19.141000 # N
330 2 1 0.000000 3.467000 13.514000 19.177000 # C
331 2 1 0.000000 5.128000 12.823000 20.500000 # C
332 2 1 0.000000 3.307000 14.191000 20.453000 # C
333 2 4 0.000000 2.714000 13.681000 18.182000 # O
334 2 1 0.000000 4.332000 13.772000 21.271000 # C
335 2 4 0.000000 6.148000 12.222000 20.934000 # O
336 2 1 0.000000 2.647000 15.394000 20.681000 # C
337 2 1 0.000000 4.723000 14.515000 22.384000 # C
338 2 1 0.000000 3.070000 16.209000 21.751000 # C
339 2 1 0.000000 4.081000 15.742000 22.627000 # C
340 2 1 0.000000 2.746000 17.645000 21.673000 # C
341 2 1 0.000000 1.413000 18.060000 21.532000 # C
342 2 1 0.000000 3.779000 18.545000 21.360000 # C
343 2 1 0.000000 1.124000 19.296000 20.941000 # C
344 2 1 0.000000 3.488000 19.765000 20.747000 # C
345 2 1 0.000000 2.157000 20.114000 20.450000 # C
346 2 3 0.000000 1.869000 21.109000 19.447000 # N
347 2 1 0.000000 1.147000 20.760000 18.256000 # C
348 2 1 0.000000 2.812000 22.087000 18.964000 # C
349 2 1 0.000000 1.700000 21.429000 17.089000 # C
350 2 4 0.000000 0.216000 19.911000 18.212000 # O
351 2 1 0.000000 2.709000 22.248000 17.514000 # C
352 2 4 0.000000 3.632000 22.699000 19.696000 # O
353 2 1 0.000000 1.506000 21.143000 15.740000 # C
354 2 1 0.000000 3.562000 22.876000 16.607000 # C
355 2 1 0.000000 2.367000 21.733000 14.789000 # C
356 2 1 0.000000 3.378000 22.626000 15.234000 # C
357 2 1 0.000000 2.294000 21.293000 13.368000 # C
358 2 1 0.000000 3.466000 21.025000 12.639000 # C
359 2 1 0.000000 1.049000 21.008000 12.780000 # C
360 2 1 0.000000 3.395000 20.415000 11.379000 # C
361 2 1 0.000000 0.983000 20.384000 11.531000 # C
362 2 1 0.000000 2.153000 20.055000 10.833000 # C
363 2 3 0.000000 2.071000 19.259000 9.638000 # N
364 2 1 0.000000 1.420000 17.987000 9.555000 # C
365 2 1 0.000000 2.965000 19.267000 8.518000 # C
366 2 1 0.000000 1.903000 17.243000 8.398000 # C
367 2 4 0.000000 0.588000 17.556000 10.399000 # O
368 2 1 0.000000 2.835000 18.028000 7.758000 # C
369 2 4 0.000000 3.759000 20.207000 8.247000 # O
370 2 1 0.000000 1.647000 15.933000 7.992000 # C
371 2 1 0.000000 3.529000 17.570000 6.639000 # C
372 2 1 0.000000 2.355000 15.423000 6.880000 # C
373 2 1 0.000000 3.277000 16.260000 6.195000 # C
374 2 1 0.000000 2.222000 13.992000 6.502000 # C
375 2 1 0.000000 2.183000 13.608000 5.150000 # C
376 2 1 0.000000 2.227000 12.993000 7.492000 # C
377 2 1 0.000000 2.210000 12.253000 4.798000 # C
378 2 1 0.000000 2.264000 11.640000 7.137000 # C
379 2 1 0.000000 2.289000 11.259000 5.788000 # C
380 2 3 0.000000 2.560000 9.894000 5.411000 # N
381 2 1 0.000000 3.685000 9.524000 4.603000 # C
382 2 1 0.000000 2.334000 8.723000 6.217000 # C
383 2 1 0.000000 4.137000 8.180000 4.930000 # C
384 2 4 0.000000 4.261000 10.300000 3.795000 # O
385 2 1 0.000000 3.316000 7.686000 5.914000 # C
386 2 4 0.000000 1.418000 8.624000 7.077000 # O
387 2 1 0.000000 5.305000 7.521000 4.557000 # C
388 2 1 0.000000 3.597000 6.483000 6.558000 # C
389 2 1 0.000000 5.647000 6.318000 5.213000 # C
390 2 1 0.000000 4.774000 5.796000 6.201000 # C
391 2 1 0.000000 6.982000 5.711000 4.968000 # C
392 2 1 0.000000 7.793000 5.327000 6.048000 # C
393 2 1 0.000000 7.508000 5.659000 3.667000 # C
394 2 1 0.000000 9.124000 4.952000 5.836000 # C
395 2 1 0.000000 8.840000 5.289000 3.456000 # C
396 2 1 0.000000 9.668000 4.964000 4.542000 # C
397 2 3 0.000000 11.077000 4.742000 4.352000 # N
398 2 1 0.000000 12.123000 5.385000 5.098000 # C
399 2 1 0.000000 11.732000 4.295000 3.156000 # C
400 2 1 0.000000 13.382000 5.318000 4.369000 # C
401 2 4 0.000000 11.957000 5.984000 6.195000 # O
402 2 4 0.000000 11.165000 3.649000 2.237000 # O
403 2 1 0.000000 13.145000 4.660000 3.182000 # C
404 2 1 0.000000 14.639000 5.835000 4.678000 # C
405 2 1 0.000000 14.156000 4.475000 2.239000 # C
406 2 1 0.000000 15.675000 5.664000 3.743000 # C
407 2 1 0.000000 15.432000 4.990000 2.527000 # C
408 2 2 0.000000 16.662000 6.051000 3.958000 # H
409 2 1 0.000000 3.997000 30.495000 0.880000 # C
410 2 1 0.000000 2.845000 30.278000 3.005000 # C
411 2 1 0.000000 3.951000 31.888000 1.000000 # C
412 2 1 0.000000 2.805000 31.670000 3.126000 # C
413 2 1 0.000000 3.362000 32.476000 2.126000 # C
414 2 2 0.000000 3.334000 33.553000 2.225000 # H
415 2 2 0.000000 5.972000 25.059000 3.067000 # H
416 2 2 0.000000 1.027000 24.844000 2.337000 # H
417 2 2 0.000000 2.261000 22.801000 3.019000 # H
418 2 2 0.000000 4.109000 21.398000 1.810000 # H
419 2 2 0.000000 5.988000 23.398000 5.142000 # H
420 2 2 0.000000 5.498000 19.436000 2.193000 # H
421 2 2 0.000000 7.332000 21.393000 5.572000 # H
422 2 2 0.000000 11.630000 18.639000 3.763000 # H
423 2 2 0.000000 8.176000 15.402000 2.162000 # H
424 2 2 0.000000 10.592000 14.933000 1.756000 # H
425 2 2 0.000000 12.571000 16.301000 0.385000 # H
426 2 2 0.000000 13.219000 16.649000 4.636000 # H
427 2 2 0.000000 15.012000 16.335000 0.018000 # H
428 2 2 0.000000 15.631000 16.657000 4.266000 # H
429 2 2 0.000000 17.795000 20.775000 2.666000 # H
430 2 2 0.000000 19.528000 16.818000 5.139000 # H
431 2 2 0.000000 19.711000 19.044000 6.153000 # H
432 2 2 0.000000 20.203000 21.313000 6.534000 # H
433 2 2 0.000000 16.483000 21.553000 4.335000 # H
434 2 2 0.000000 19.266000 22.828000 8.227000 # H
435 2 2 0.000000 15.614000 23.102000 5.953000 # H
436 2 2 0.000000 14.492000 21.314000 10.957000 # H
437 2 2 0.000000 12.734000 25.158000 8.317000 # H
438 2 2 0.000000 11.154000 23.677000 9.520000 # H
439 2 2 0.000000 12.714000 21.172000 12.795000 # H
440 2 2 0.000000 10.619000 21.254000 9.021000 # H
441 2 2 0.000000 11.312000 19.296000 13.527000 # H
442 2 2 0.000000 9.222000 19.376000 9.759000 # H
443 2 2 0.000000 7.655000 16.418000 15.601000 # H
444 2 2 0.000000 8.669000 13.951000 11.373000 # H
445 2 2 0.000000 7.653000 12.735000 13.298000 # H
446 2 2 0.000000 5.419000 12.811000 14.604000 # H
447 2 2 0.000000 8.386000 14.597000 17.186000 # H
448 2 2 0.000000 4.171000 12.049000 16.586000 # H
449 2 2 0.000000 7.150000 13.855000 19.136000 # H
450 2 2 0.000000 1.969000 15.778000 19.928000 # H
451 2 2 0.000000 5.591000 14.226000 22.965000 # H
452 2 2 0.000000 4.457000 16.379000 23.416000 # H
453 2 2 0.000000 0.600000 17.381000 21.765000 # H
454 2 2 0.000000 4.813000 18.240000 21.446000 # H
455 2 2 0.000000 0.091000 19.554000 20.751000 # H
456 2 2 0.000000 4.314000 20.367000 20.396000 # H
457 2 2 0.000000 0.767000 20.407000 15.456000 # H
458 2 2 0.000000 4.386000 23.485000 16.953000 # H
459 2 2 0.000000 4.049000 23.090000 14.525000 # H
460 2 2 0.000000 4.442000 21.219000 13.066000 # H
461 2 2 0.000000 0.128000 21.224000 13.303000 # H
462 2 2 0.000000 4.313000 20.155000 10.866000 # H
463 2 2 0.000000 0.015000 20.126000 11.121000 # H
464 2 2 0.000000 0.943000 15.323000 8.545000 # H
465 2 2 0.000000 4.267000 18.189000 6.147000 # H
466 2 2 0.000000 3.847000 15.877000 5.360000 # H
467 2 2 0.000000 2.157000 14.355000 4.366000 # H
468 2 2 0.000000 2.275000 13.262000 8.540000 # H
469 2 2 0.000000 2.211000 11.980000 3.750000 # H
470 2 2 0.000000 2.352000 10.905000 7.924000 # H
471 2 2 0.000000 5.978000 7.984000 3.849000 # H
472 2 2 0.000000 2.959000 6.114000 7.348000 # H
473 2 2 0.000000 5.023000 4.881000 6.721000 # H
474 2 2 0.000000 7.423000 5.378000 7.064000 # H
475 2 2 0.000000 6.905000 5.944000 2.816000 # H
476 2 2 0.000000 9.739000 4.688000 6.687000 # H
477 2 2 0.000000 9.235000 5.318000 2.448000 # H
478 2 2 0.000000 14.811000 6.364000 5.605000 # H
479 2 2 0.000000 13.965000 3.963000 1.305000 # H
480 2 2 0.000000 16.238000 4.868000 1.811000 # H
481 2 2 0.000000 4.453000 30.048000 0.006000 # H
482 2 2 0.000000 2.418000 29.661000 3.785000 # H
483 2 2 0.000000 4.381000 32.512000 0.227000 # H
484 2 2 0.000000 2.349000 32.126000 3.996000 # H
485 3 3 0.000000 30.121000 3.118000 29.513000 # N
486 3 1 0.000000 28.760000 2.890000 29.140000 # C
487 3 1 0.000000 31.001000 4.023000 28.839000 # C
488 3 1 0.000000 30.622000 3.072000 30.852000 # C
489 3 1 0.000000 32.045000 4.484000 29.750000 # C
490 3 4 0.000000 30.861000 4.387000 27.642000 # O
491 3 1 0.000000 31.821000 3.897000 30.973000 # C
492 3 4 0.000000 30.088000 2.415000 31.785000 # O
493 3 1 0.000000 33.121000 5.342000 29.539000 # C
494 3 1 0.000000 32.669000 4.113000 32.056000 # C
495 3 1 0.000000 34.020000 5.562000 30.609000 # C
496 3 1 0.000000 33.783000 4.945000 31.865000 # C
497 3 1 0.000000 35.235000 6.373000 30.394000 # C
498 3 1 0.000000 36.495000 5.846000 30.719000 # C
499 3 1 0.000000 35.159000 7.644000 29.800000 # C
500 3 1 0.000000 37.660000 6.548000 30.405000 # C
501 3 1 0.000000 36.328000 8.358000 29.509000 # C
502 3 1 0.000000 37.592000 7.805000 29.785000 # C
503 3 3 0.000000 38.791000 8.466000 29.327000 # N
504 3 1 0.000000 38.966000 8.955000 27.989000 # C
505 3 1 0.000000 40.131000 8.177000 29.757000 # C
506 3 1 0.000000 40.373000 8.933000 27.618000 # C
507 3 4 0.000000 38.023000 9.278000 27.219000 # O
508 3 1 0.000000 41.084000 8.444000 28.685000 # C
509 3 4 0.000000 40.434000 7.786000 30.914000 # O
510 3 1 0.000000 40.977000 9.211000 26.399000 # C
511 3 1 0.000000 42.450000 8.175000 28.584000 # C
512 3 1 0.000000 42.358000 8.962000 26.264000 # C
513 3 1 0.000000 43.091000 8.433000 27.356000 # C
514 3 1 0.000000 43.011000 9.253000 24.977000 # C
515 3 1 0.000000 43.661000 8.239000 24.255000 # C
516 3 1 0.000000 42.849000 10.518000 24.397000 # C
517 3 1 0.000000 44.054000 8.465000 22.928000 # C
518 3 1 0.000000 43.262000 10.744000 23.087000 # C
519 3 1 0.000000 43.835000 9.711000 22.324000 # C
520 3 3 0.000000 43.923000 9.851000 20.895000 # N
521 3 1 0.000000 42.779000 9.453000 20.132000 # C
522 3 1 0.000000 44.257000 11.114000 20.304000 # C
523 3 1 0.000000 42.306000 10.530000 19.274000 # C
524 3 4 0.000000 42.178000 8.358000 20.295000 # O
525 3 1 0.000000 43.224000 11.551000 19.373000 # C
526 3 4 0.000000 45.241000 11.813000 20.662000 # O
527 3 1 0.000000 40.987000 10.777000 18.904000 # C
528 3 1 0.000000 42.887000 12.860000 19.041000 # C
529 3 1 0.000000 40.578000 12.114000 18.686000 # C
530 3 1 0.000000 41.564000 13.136000 18.677000 # C
531 3 1 0.000000 39.140000 12.481000 18.820000 # C
532 3 1 0.000000 38.618000 13.634000 18.203000 # C
533 3 1 0.000000 38.347000 11.809000 19.771000 # C
534 3 1 0.000000 37.391000 14.167000 18.622000 # C
535 3 1 0.000000 37.118000 12.327000 20.167000 # C
536 3 1 0.000000 36.651000 13.540000 19.638000 # C
537 3 3 0.000000 35.591000 14.249000 20.305000 # N
538 3 1 0.000000 35.938000 15.339000 21.170000 # C
539 3 1 0.000000 34.574000 13.567000 21.067000 # C
540 3 1 0.000000 35.290000 15.215000 22.467000 # C
541 3 4 0.000000 36.755000 16.245000 20.861000 # O
542 3 1 0.000000 34.447000 14.137000 22.403000 # C
543 3 4 0.000000 34.003000 12.518000 20.677000 # O
544 3 1 0.000000 35.686000 15.760000 23.687000 # C
545 3 1 0.000000 33.900000 13.573000 23.554000 # C
546 3 1 0.000000 35.191000 15.185000 24.878000 # C
547 3 1 0.000000 34.270000 14.111000 24.798000 # C
548 3 1 0.000000 35.772000 15.589000 26.179000 # C
549 3 1 0.000000 35.955000 16.947000 26.485000 # C
550 3 1 0.000000 36.252000 14.615000 27.075000 # C
551 3 1 0.000000 36.610000 17.323000 27.660000 # C
552 3 1 0.000000 36.924000 14.994000 28.242000 # C
553 3 1 0.000000 37.104000 16.352000 28.542000 # C
554 3 3 0.000000 37.794000 16.743000 29.738000 # N
555 3 1 0.000000 37.465000 17.848000 30.583000 # C
556 3 1 0.000000 39.156000 16.439000 30.069000 # C
557 3 1 0.000000 38.595000 18.184000 31.435000 # C
558 3 4 0.000000 36.339000 18.421000 30.596000 # O
559 3 1 0.000000 39.628000 17.329000 31.129000 # C
560 3 4 0.000000 39.848000 15.559000 29.489000 # O
561 3 1 0.000000 38.724000 19.175000 32.394000 # C
562 3 1 0.000000 40.863000 17.425000 31.774000 # C
563 3 1 0.000000 39.955000 19.298000 33.077000 # C
564 3 1 0.000000 41.020000 18.414000 32.764000 # C
565 3 1 0.000000 40.094000 20.334000 34.119000 # C
566 3 1 0.000000 40.573000 20.007000 35.403000 # C
567 3 1 0.000000 39.616000 21.630000 33.877000 # C
568 3 1 0.000000 40.467000 20.930000 36.448000 # C
569 3 1 0.000000 39.514000 22.548000 34.918000 # C
570 3 1 0.000000 39.892000 22.195000 36.228000 # C
571 3 3 0.000000 39.471000 23.001000 37.345000 # N
572 3 1 0.000000 38.450000 22.495000 38.215000 # C
573 3 1 0.000000 39.097000 24.381000 37.209000 # C
574 3 1 0.000000 37.402000 23.478000 38.436000 # C
575 3 4 0.000000 38.411000 21.307000 38.629000 # O
576 3 1 0.000000 37.794000 24.642000 37.812000 # C
577 3 4 0.000000 39.770000 25.227000 36.561000 # O
578 3 1 0.000000 36.063000 23.222000 38.709000 # C
579 3 1 0.000000 36.870000 25.627000 37.467000 # C
580 3 1 0.000000 35.094000 24.161000 38.302000 # C
581 3 1 0.000000 35.509000 25.385000 37.720000 # C
582 3 1 0.000000 33.715000 23.672000 38.123000 # C
583 3 1 0.000000 33.047000 23.043000 39.184000 # C
584 3 1 0.000000 33.234000 23.499000 36.814000 # C
585 3 1 0.000000 32.015000 22.134000 38.921000 # C
586 3 1 0.000000 32.223000 22.572000 36.552000 # C
587 3 1 0.000000 31.664000 21.814000 37.597000 # C
588 3 3 0.000000 30.978000 20.576000 37.316000 # N
589 3 1 0.000000 31.481000 19.330000 37.822000 # C
590 3 1 0.000000 30.455000 20.200000 36.027000 # C
591 3 1 0.000000 31.353000 18.270000 36.835000 # C
592 3 4 0.000000 32.047000 19.193000 38.940000 # O
593 3 1 0.000000 30.719000 18.791000 35.741000 # C
594 3 4 0.000000 29.873000 20.993000 35.242000 # O
595 3 1 0.000000 31.975000 17.025000 36.799000 # C
596 3 1 0.000000 30.623000 18.072000 34.549000 # C
597 3 1 0.000000 31.930000 16.276000 35.602000 # C
598 3 1 0.000000 31.222000 16.800000 34.488000 # C
599 3 1 0.000000 32.746000 15.035000 35.488000 # C
600 3 1 0.000000 33.501000 14.777000 34.330000 # C
601 3 1 0.000000 32.879000 14.174000 36.591000 # C
602 3 1 0.000000 34.425000 13.724000 34.305000 # C
603 3 1 0.000000 33.814000 13.135000 36.568000 # C
604 3 1 0.000000 34.616000 12.918000 35.439000 # C
605 3 3 0.000000 35.689000 11.963000 35.497000 # N
606 3 1 0.000000 36.725000 11.968000 36.485000 # C
607 3 1 0.000000 36.239000 11.197000 34.419000 # C
608 3 1 0.000000 37.878000 11.210000 36.016000 # C
609 3 4 0.000000 36.663000 12.591000 37.580000 # O
610 3 1 0.000000 37.577000 10.727000 34.763000 # C
611 3 4 0.000000 35.650000 10.980000 33.326000 # O
612 3 1 0.000000 39.144000 11.045000 36.579000 # C
613 3 1 0.000000 38.507000 10.004000 34.017000 # C
614 3 1 0.000000 40.123000 10.344000 35.839000 # C
615 3 1 0.000000 39.785000 9.806000 34.567000 # C
616 3 1 0.000000 41.523000 10.270000 36.333000 # C
617 3 1 0.000000 42.274000 9.092000 36.185000 # C
618 3 1 0.000000 42.146000 11.410000 36.873000 # C
619 3 1 0.000000 43.635000 9.074000 36.515000 # C
620 3 1 0.000000 43.508000 11.392000 37.191000 # C
621 3 1 0.000000 44.272000 10.234000 36.984000 # C
622 3 3 0.000000 45.710000 10.270000 37.086000 # N
623 3 1 0.000000 46.571000 9.947000 35.987000 # C
624 3 1 0.000000 46.490000 11.207000 37.852000 # C
625 3 1 0.000000 47.821000 10.686000 36.075000 # C
626 3 4 0.000000 46.242000 9.203000 35.025000 # O
627 3 1 0.000000 47.778000 11.456000 37.212000 # C
628 3 4 0.000000 46.096000 11.746000 38.921000 # O
629 3 1 0.000000 48.828000 10.842000 35.127000 # C
630 3 1 0.000000 48.762000 12.405000 37.484000 # C
631 3 1 0.000000 49.823000 11.821000 35.346000 # C
632 3 1 0.000000 49.791000 12.585000 36.540000 # C
633 3 1 0.000000 50.785000 12.136000 34.257000 # C
634 3 1 0.000000 51.013000 13.469000 33.879000 # C
635 3 1 0.000000 51.354000 11.103000 33.495000 # C
636 3 1 0.000000 51.750000 13.762000 32.726000 # C
637 3 1 0.000000 52.087000 11.397000 32.340000 # C
638 3 1 0.000000 52.263000 12.727000 31.928000 # C
639 3 3 0.000000 52.871000 13.031000 30.660000 # N
640 3 1 0.000000 52.312000 13.898000 29.661000 # C
641 3 1 0.000000 53.805000 12.222000 29.929000 # C
642 3 1 0.000000 52.903000 13.622000 28.359000 # C
643 3 4 0.000000 51.389000 14.731000 29.871000 # O
644 3 4 0.000000 54.537000 11.341000 30.449000 # O
645 3 1 0.000000 53.809000 12.597000 28.519000 # C
646 3 1 0.000000 52.643000 14.178000 27.108000 # C
647 3 1 0.000000 54.512000 12.073000 27.434000 # C
648 3 1 0.000000 53.337000 13.666000 25.998000 # C
649 3 1 0.000000 54.265000 12.615000 26.161000 # C
650 3 2 0.000000 53.160000 14.082000 25.014000 # H
651 3 1 0.000000 28.451000 1.952000 28.144000 # C
652 3 1 0.000000 27.727000 3.617000 29.755000 # C
653 3 1 0.000000 27.121000 1.741000 27.767000 # C
654 3 1 0.000000 26.399000 3.409000 29.374000 # C
655 3 1 0.000000 26.095000 2.474000 28.377000 # C
656 3 2 0.000000 25.066000 2.319000 28.081000 # H
657 3 2 0.000000 33.286000 5.784000 28.564000 # H
658 3 2 0.000000 32.486000 3.646000 33.015000 # H
659 3 2 0.000000 34.467000 5.107000 32.688000 # H
660 3 2 0.000000 36.579000 4.861000 31.163000 # H
661 3 2 0.000000 34.195000 8.079000 29.550000 # H
662 3 2 0.000000 38.613000 6.074000 30.600000 # H
663 3 2 0.000000 36.243000 9.331000 29.054000 # H
664 3 2 0.000000 40.383000 9.578000 25.571000 # H
665 3 2 0.000000 42.997000 7.757000 29.421000 # H
666 3 2 0.000000 44.147000 8.223000 27.256000 # H
667 3 2 0.000000 43.786000 7.254000 24.687000 # H
668 3 2 0.000000 42.345000 11.312000 24.944000 # H
669 3 2 0.000000 44.467000 7.652000 22.347000 # H
670 3 2 0.000000 43.043000 11.704000 22.639000 # H
671 3 2 0.000000 40.264000 9.972000 18.967000 # H
672 3 2 0.000000 43.590000 13.666000 19.200000 # H
673 3 2 0.000000 41.279000 14.169000 18.550000 # H
674 3 2 0.000000 39.195000 14.171000 17.457000 # H
675 3 2 0.000000 38.721000 10.945000 20.304000 # H
676 3 2 0.000000 37.058000 15.117000 18.218000 # H
677 3 2 0.000000 36.593000 11.834000 20.975000 # H
678 3 2 0.000000 36.456000 16.522000 23.714000 # H
679 3 2 0.000000 33.278000 12.689000 23.502000 # H
680 3 2 0.000000 33.891000 13.650000 25.702000 # H
681 3 2 0.000000 35.595000 17.714000 25.812000 # H
682 3 2 0.000000 36.141000 13.560000 26.856000 # H
683 3 2 0.000000 36.757000 18.378000 27.868000 # H
684 3 2 0.000000 37.304000 14.233000 28.910000 # H
685 3 2 0.000000 37.884000 19.820000 32.623000 # H
686 3 2 0.000000 41.679000 16.759000 31.521000 # H
687 3 2 0.000000 41.969000 18.501000 33.281000 # H
688 3 2 0.000000 40.956000 19.012000 35.608000 # H
689 3 2 0.000000 39.263000 21.914000 32.892000 # H
690 3 2 0.000000 40.754000 20.635000 37.449000 # H
691 3 2 0.000000 39.055000 23.506000 34.709000 # H
692 3 2 0.000000 35.770000 22.232000 39.040000 # H
693 3 2 0.000000 37.176000 26.494000 36.893000 # H
694 3 2 0.000000 34.777000 26.089000 37.350000 # H
695 3 2 0.000000 33.402000 23.161000 40.202000 # H
696 3 2 0.000000 33.744000 23.962000 35.979000 # H
697 3 2 0.000000 31.581000 21.585000 39.745000 # H
698 3 2 0.000000 31.978000 22.366000 35.520000 # H
699 3 2 0.000000 32.557000 16.699000 37.649000 # H
700 3 2 0.000000 30.161000 18.508000 33.675000 # H
701 3 2 0.000000 31.174000 16.245000 33.561000 # H
702 3 2 0.000000 33.433000 15.427000 33.467000 # H
703 3 2 0.000000 32.296000 14.329000 37.488000 # H
704 3 2 0.000000 35.045000 13.586000 33.428000 # H
705 3 2 0.000000 33.937000 12.517000 37.448000 # H
706 3 2 0.000000 39.366000 11.477000 37.547000 # H
707 3 2 0.000000 38.266000 9.637000 33.028000 # H
708 3 2 0.000000 40.530000 9.292000 33.976000 # H
709 3 2 0.000000 41.816000 8.192000 35.792000 # H
710 3 2 0.000000 41.594000 12.335000 36.980000 # H
711 3 2 0.000000 44.202000 8.164000 36.363000 # H
712 3 2 0.000000 43.969000 12.310000 37.524000 # H
713 3 2 0.000000 48.781000 10.290000 34.199000 # H
714 3 2 0.000000 48.706000 13.023000 38.368000 # H
715 3 2 0.000000 50.540000 13.345000 36.722000 # H
716 3 2 0.000000 50.569000 14.286000 34.433000 # H
717 3 2 0.000000 51.200000 10.068000 33.764000 # H
718 3 2 0.000000 51.888000 14.796000 32.437000 # H
719 3 2 0.000000 52.461000 10.577000 31.739000 # H
720 3 2 0.000000 51.919000 14.972000 26.991000 # H
721 3 2 0.000000 55.218000 11.263000 27.561000 # H
722 3 2 0.000000 54.792000 12.226000 25.296000 # H
723 3 2 0.000000 29.239000 1.381000 27.670000 # H
724 3 2 0.000000 27.956000 4.345000 30.522000 # H
725 3 2 0.000000 26.885000 1.019000 26.997000 # H
726 3 2 0.000000 25.604000 3.974000 29.845000 # H
727 4 3 0.000000 42.459000 39.979000 30.033000 # N
728 4 1 0.000000 43.498000 40.952000 30.144000 # C
729 4 1 0.000000 42.319000 39.070000 28.937000 # C
730 4 1 0.000000 41.854000 39.295000 31.135000 # C
731 4 1 0.000000 41.602000 37.871000 29.363000 # C
732 4 4 0.000000 42.784000 39.273000 27.785000 # O
733 4 1 0.000000 41.309000 38.013000 30.699000 # C
734 4 4 0.000000 41.814000 39.747000 32.311000 # O
735 4 1 0.000000 41.217000 36.740000 28.648000 # C
736 4 1 0.000000 40.596000 37.044000 31.400000 # C
737 4 1 0.000000 40.466000 35.747000 29.321000 # C
738 4 1 0.000000 40.163000 35.908000 30.698000 # C
739 4 1 0.000000 39.942000 34.588000 28.572000 # C
740 4 1 0.000000 38.572000 34.284000 28.622000 # C
741 4 1 0.000000 40.782000 33.821000 27.747000 # C
742 4 1 0.000000 38.041000 33.271000 27.822000 # C
743 4 1 0.000000 40.251000 32.788000 26.965000 # C
744 4 1 0.000000 38.869000 32.520000 26.975000 # C
745 4 3 0.000000 38.306000 31.575000 26.040000 # N
746 4 1 0.000000 38.599000 31.576000 24.636000 # C
747 4 1 0.000000 36.989000 31.004000 26.109000 # C
748 4 1 0.000000 37.474000 31.045000 23.880000 # C
749 4 4 0.000000 39.650000 32.049000 24.126000 # O
750 4 1 0.000000 36.485000 30.711000 24.771000 # C
751 4 4 0.000000 36.379000 30.757000 27.181000 # O
752 4 1 0.000000 37.282000 30.966000 22.507000 # C
753 4 1 0.000000 35.224000 30.302000 24.336000 # C
754 4 1 0.000000 36.024000 30.543000 22.030000 # C
755 4 1 0.000000 34.992000 30.223000 22.948000 # C
756 4 1 0.000000 35.807000 30.454000 20.577000 # C
757 4 1 0.000000 34.800000 31.207000 19.953000 # C
758 4 1 0.000000 36.713000 29.729000 19.793000 # C
759 4 1 0.000000 34.766000 31.310000 18.554000 # C
760 4 1 0.000000 36.662000 29.815000 18.405000 # C
761 4 1 0.000000 35.712000 30.635000 17.769000 # C
762 4 3 0.000000 35.895000 30.990000 16.387000 # N
763 4 1 0.000000 36.710000 32.134000 16.112000 # C
764 4 1 0.000000 36.392000 30.029000 15.445000 # C
765 4 1 0.000000 37.803000 31.807000 15.206000 # C
766 4 4 0.000000 36.579000 33.241000 16.697000 # O
767 4 1 0.000000 37.600000 30.512000 14.788000 # C
768 4 4 0.000000 35.925000 28.867000 15.322000 # O
769 4 1 0.000000 39.071000 32.380000 15.198000 # C
770 4 1 0.000000 38.644000 29.747000 14.275000 # C
771 4 1 0.000000 40.175000 31.588000 14.805000 # C
772 4 1 0.000000 39.931000 30.297000 14.266000 # C
773 4 1 0.000000 41.546000 31.942000 15.270000 # C
774 4 1 0.000000 42.691000 31.493000 14.584000 # C
775 4 1 0.000000 41.709000 32.524000 16.543000 # C
776 4 1 0.000000 43.945000 31.512000 15.212000 # C
777 4 1 0.000000 42.958000 32.564000 17.153000 # C
778 4 1 0.000000 44.081000 32.008000 16.519000 # C
779 4 3 0.000000 45.263000 31.717000 17.285000 # N
780 4 1 0.000000 45.474000 30.369000 17.729000 # C
781 4 1 0.000000 45.628000 32.483000 18.452000 # C
782 4 1 0.000000 45.778000 30.320000 19.152000 # C
783 4 4 0.000000 45.342000 29.360000 16.989000 # O
784 4 1 0.000000 45.882000 31.613000 19.594000 # C
785 4 4 0.000000 45.565000 33.736000 18.505000 # O
786 4 1 0.000000 45.602000 29.258000 20.036000 # C
787 4 1 0.000000 45.878000 31.918000 20.953000 # C
788 4 1 0.000000 45.543000 29.533000 21.420000 # C
789 4 1 0.000000 45.717000 30.865000 21.870000 # C
790 4 1 0.000000 45.128000 28.466000 22.359000 # C
791 4 1 0.000000 45.691000 27.182000 22.271000 # C
792 4 1 0.000000 44.081000 28.692000 23.273000 # C
793 4 1 0.000000 45.214000 26.146000 23.077000 # C
794 4 1 0.000000 43.593000 27.648000 24.066000 # C
795 4 1 0.000000 44.160000 26.368000 23.974000 # C
796 4 3 0.000000 43.660000 25.296000 24.785000 # N
797 4 1 0.000000 44.438000 24.271000 25.408000 # C
798 4 1 0.000000 42.329000 24.761000 24.759000 # C
799 4 1 0.000000 43.588000 23.151000 25.782000 # C
800 4 4 0.000000 45.681000 24.353000 25.620000 # O
801 4 1 0.000000 42.302000 23.444000 25.393000 # C
802 4 4 0.000000 41.344000 25.336000 24.222000 # O
803 4 1 0.000000 43.912000 21.955000 26.402000 # C
804 4 1 0.000000 41.258000 22.540000 25.601000 # C
805 4 1 0.000000 42.881000 21.018000 26.640000 # C
806 4 1 0.000000 41.554000 21.320000 26.241000 # C
807 4 1 0.000000 43.211000 19.751000 27.322000 # C
808 4 1 0.000000 42.477000 19.323000 28.445000 # C
809 4 1 0.000000 44.353000 19.033000 26.937000 # C
810 4 1 0.000000 42.946000 18.264000 29.229000 # C
811 4 1 0.000000 44.816000 17.977000 27.717000 # C
812 4 1 0.000000 44.147000 17.610000 28.901000 # C
813 4 3 0.000000 44.802000 16.771000 29.871000 # N
814 4 1 0.000000 45.253000 17.359000 31.099000 # C
815 4 1 0.000000 45.891000 15.898000 29.534000 # C
816 4 1 0.000000 46.634000 17.002000 31.384000 # C
817 4 4 0.000000 44.577000 18.180000 31.771000 # O
818 4 1 0.000000 47.032000 16.105000 30.418000 # C
819 4 4 0.000000 45.885000 15.126000 28.537000 # O
820 4 1 0.000000 47.560000 17.757000 32.094000 # C
821 4 1 0.000000 48.382000 15.888000 30.144000 # C
822 4 1 0.000000 48.928000 17.621000 31.785000 # C
823 4 1 0.000000 49.338000 16.650000 30.838000 # C
824 4 1 0.000000 49.815000 18.743000 32.143000 # C
825 4 1 0.000000 49.885000 19.191000 33.470000 # C
826 4 1 0.000000 50.278000 19.581000 31.114000 # C
827 4 1 0.000000 50.264000 20.511000 33.745000 # C
828 4 1 0.000000 50.629000 20.904000 31.388000 # C
829 4 1 0.000000 50.540000 21.409000 32.698000 # C
830 4 3 0.000000 50.453000 22.830000 32.930000 # N
831 4 1 0.000000 49.287000 23.401000 33.540000 # C
832 4 1 0.000000 50.836000 23.843000 31.979000 # C
833 4 1 0.000000 48.928000 24.663000 32.911000 # C
834 4 4 0.000000 48.606000 22.839000 34.439000 # O
835 4 1 0.000000 49.874000 24.943000 31.965000 # C
836 4 4 0.000000 51.852000 23.770000 31.240000 # O
837 4 1 0.000000 47.731000 25.370000 32.984000 # C
838 4 1 0.000000 49.703000 25.989000 31.058000 # C
839 4 1 0.000000 47.501000 26.417000 32.064000 # C
840 4 1 0.000000 48.512000 26.738000 31.120000 # C
841 4 1 0.000000 46.157000 27.055000 32.006000 # C
842 4 1 0.000000 45.536000 27.308000 30.770000 # C
843 4 1 0.000000 45.433000 27.285000 33.188000 # C
844 4 1 0.000000 44.194000 27.711000 30.718000 # C
845 4 1 0.000000 44.091000 27.671000 33.132000 # C
846 4 1 0.000000 43.450000 27.859000 31.900000 # C
847 4 3 0.000000 42.030000 28.082000 31.859000 # N
848 4 1 0.000000 41.058000 27.224000 32.465000 # C
849 4 1 0.000000 41.287000 28.812000 30.876000 # C
850 4 1 0.000000 39.747000 27.439000 31.865000 # C
851 4 4 0.000000 41.318000 26.366000 33.352000 # O
852 4 1 0.000000 39.883000 28.417000 30.907000 # C
853 4 4 0.000000 41.788000 29.660000 30.089000 # O
854 4 1 0.000000 38.544000 26.758000 32.049000 # C
855 4 1 0.000000 38.809000 28.811000 30.109000 # C
856 4 1 0.000000 37.441000 27.108000 31.237000 # C
857 4 1 0.000000 37.579000 28.155000 30.286000 # C
858 4 1 0.000000 36.186000 26.314000 31.297000 # C
859 4 1 0.000000 34.933000 26.944000 31.212000 # C
860 4 1 0.000000 36.238000 24.909000 31.346000 # C
861 4 1 0.000000 33.762000 26.183000 31.118000 # C
862 4 1 0.000000 35.067000 24.151000 31.241000 # C
863 4 1 0.000000 33.822000 24.779000 31.093000 # C
864 4 3 0.000000 32.646000 24.019000 30.752000 # N
865 4 1 0.000000 31.894000 24.252000 29.554000 # C
866 4 1 0.000000 32.427000 22.620000 31.012000 # C
867 4 1 0.000000 31.263000 23.025000 29.092000 # C
868 4 4 0.000000 31.873000 25.349000 28.935000 # O
869 4 1 0.000000 31.584000 22.026000 29.979000 # C
870 4 4 0.000000 32.918000 21.999000 31.993000 # O
871 4 1 0.000000 30.638000 22.751000 27.880000 # C
872 4 1 0.000000 31.266000 20.694000 29.717000 # C
873 4 1 0.000000 30.334000 21.409000 27.559000 # C
874 4 1 0.000000 30.636000 20.388000 28.496000 # C
875 4 1 0.000000 29.852000 21.080000 26.191000 # C
876 4 1 0.000000 30.449000 20.039000 25.463000 # C
877 4 1 0.000000 28.906000 21.902000 25.558000 # C
878 4 1 0.000000 30.148000 19.859000 24.108000 # C
879 4 1 0.000000 28.609000 21.724000 24.202000 # C
880 4 1 0.000000 29.252000 20.722000 23.459000 # C
881 4 3 0.000000 29.076000 20.637000 22.033000 # N
882 4 1 0.000000 30.142000 20.571000 21.072000 # C
883 4 1 0.000000 27.951000 21.092000 21.268000 # C
884 4 1 0.000000 29.664000 20.969000 19.755000 # C
885 4 4 0.000000 31.337000 20.277000 21.345000 # O
886 4 4 0.000000 26.795000 21.257000 21.738000 # O
887 4 1 0.000000 28.330000 21.294000 19.874000 # C
888 4 1 0.000000 30.341000 21.097000 18.543000 # C
889 4 1 0.000000 27.596000 21.758000 18.783000 # C
890 4 1 0.000000 29.624000 21.566000 17.429000 # C
891 4 1 0.000000 28.258000 21.899000 17.550000 # C
892 4 2 0.000000 30.122000 21.670000 16.474000 # H
893 4 1 0.000000 43.357000 42.206000 29.532000 # C
894 4 1 0.000000 44.675000 40.652000 30.850000 # C
895 4 1 0.000000 44.382000 43.153000 29.628000 # C
896 4 1 0.000000 45.701000 41.597000 30.941000 # C
897 4 1 0.000000 45.558000 42.846000 30.326000 # C
898 4 2 0.000000 46.355000 43.574000 30.393000 # H
899 4 2 0.000000 41.447000 36.654000 27.592000 # H
900 4 2 0.000000 40.369000 37.164000 32.451000 # H
901 4 2 0.000000 39.587000 35.154000 31.220000 # H
902 4 2 0.000000 37.903000 34.872000 29.238000 # H
903 4 2 0.000000 41.848000 34.029000 27.701000 # H
904 4 2 0.000000 36.970000 33.119000 27.830000 # H
905 4 2 0.000000 40.916000 32.214000 26.342000 # H
906 4 2 0.000000 38.077000 31.255000 21.831000 # H
907 4 2 0.000000 34.439000 30.072000 25.046000 # H
908 4 2 0.000000 34.019000 29.915000 22.591000 # H
909 4 2 0.000000 34.098000 31.780000 20.545000 # H
910 4 2 0.000000 37.500000 29.143000 20.263000 # H
911 4 2 0.000000 34.048000 31.966000 18.084000 # H
912 4 2 0.000000 37.429000 29.313000 17.830000 # H
913 4 2 0.000000 39.213000 33.351000 15.659000 # H
914 4 2 0.000000 38.492000 28.706000 14.026000 # H
915 4 2 0.000000 40.754000 29.654000 13.992000 # H
916 4 2 0.000000 42.606000 31.051000 13.598000 # H
917 4 2 0.000000 40.856000 32.844000 17.127000 # H
918 4 2 0.000000 44.795000 31.057000 14.715000 # H
919 4 2 0.000000 43.018000 32.924000 18.172000 # H
920 4 2 0.000000 45.387000 28.267000 19.655000 # H
921 4 2 0.000000 45.907000 32.944000 21.296000 # H
922 4 2 0.000000 45.661000 31.096000 22.928000 # H
923 4 2 0.000000 46.496000 26.984000 21.575000 # H
924 4 2 0.000000 43.616000 29.667000 23.350000 # H
925 4 2 0.000000 45.651000 25.158000 22.979000 # H
926 4 2 0.000000 42.775000 27.834000 24.749000 # H
927 4 2 0.000000 44.932000 21.765000 26.712000 # H
928 4 2 0.000000 40.249000 22.767000 25.280000 # H
929 4 2 0.000000 40.756000 20.607000 26.418000 # H
930 4 2 0.000000 41.585000 19.860000 28.754000 # H
931 4 2 0.000000 44.923000 19.328000 26.064000 # H
932 4 2 0.000000 42.422000 18.004000 30.139000 # H
933 4 2 0.000000 45.751000 17.508000 27.436000 # H
934 4 2 0.000000 47.212000 18.573000 32.718000 # H
935 4 2 0.000000 48.682000 15.251000 29.318000 # H
936 4 2 0.000000 50.376000 16.573000 30.548000 # H
937 4 2 0.000000 49.532000 18.562000 34.280000 # H
938 4 2 0.000000 50.218000 19.262000 30.081000 # H
939 4 2 0.000000 50.215000 20.866000 34.765000 # H
940 4 2 0.000000 50.845000 21.555000 30.552000 # H
941 4 2 0.000000 46.965000 25.045000 33.675000 # H
942 4 2 0.000000 50.434000 26.175000 30.283000 # H
943 4 2 0.000000 48.360000 27.535000 30.405000 # H
944 4 2 0.000000 46.059000 27.128000 29.839000 # H
945 4 2 0.000000 45.887000 27.124000 34.156000 # H
946 4 2 0.000000 43.716000 27.834000 29.754000 # H
947 4 2 0.000000 43.538000 27.792000 34.055000 # H
948 4 2 0.000000 38.480000 25.960000 32.779000 # H
949 4 2 0.000000 38.927000 29.573000 29.350000 # H
950 4 2 0.000000 36.754000 28.416000 29.637000 # H
951 4 2 0.000000 34.861000 28.025000 31.194000 # H
952 4 2 0.000000 37.191000 24.398000 31.393000 # H
953 4 2 0.000000 32.810000 26.689000 31.022000 # H
954 4 2 0.000000 35.154000 23.075000 31.198000 # H
955 4 2 0.000000 30.487000 23.546000 27.164000 # H
956 4 2 0.000000 31.544000 19.912000 30.408000 # H
957 4 2 0.000000 30.418000 19.354000 28.265000 # H
958 4 2 0.000000 31.199000 19.403000 25.917000 # H
959 4 2 0.000000 28.426000 22.708000 26.095000 # H
960 4 2 0.000000 30.643000 19.068000 23.558000 # H
961 4 2 0.000000 27.922000 22.412000 23.726000 # H
962 4 2 0.000000 31.391000 20.854000 18.464000 # H
963 4 2 0.000000 26.550000 22.019000 18.880000 # H
964 4 2 0.000000 27.715000 22.263000 16.684000 # H
965 4 2 0.000000 42.451000 42.451000 28.993000 # H
966 4 2 0.000000 44.795000 39.686000 31.324000 # H
967 4 2 0.000000 44.272000 44.119000 29.153000 # H
968 4 2 0.000000 46.610000 41.362000 31.480000 # H
969 5 3 0.000000 36.054000 30.436000 35.509000 # N
970 5 1 0.000000 36.499000 30.606000 34.162000 # C
971 5 1 0.000000 35.990000 29.175000 36.183000 # C
972 5 1 0.000000 36.240000 31.388000 36.561000 # C
973 5 1 0.000000 36.094000 29.370000 37.627000 # C
974 5 4 0.000000 35.893000 28.064000 35.600000 # O
975 5 1 0.000000 36.236000 30.717000 37.858000 # C
976 5 4 0.000000 36.394000 32.625000 36.375000 # O
977 5 1 0.000000 36.058000 28.451000 38.673000 # C
978 5 1 0.000000 36.330000 31.235000 39.147000 # C
979 5 1 0.000000 36.123000 28.943000 39.998000 # C
980 5 1 0.000000 36.261000 30.337000 40.224000 # C
981 5 1 0.000000 35.974000 28.014000 41.136000 # C
982 5 1 0.000000 35.005000 28.262000 42.120000 # C
983 5 1 0.000000 36.742000 26.839000 41.214000 # C
984 5 1 0.000000 34.765000 27.330000 43.131000 # C
985 5 1 0.000000 36.518000 25.918000 42.244000 # C
986 5 1 0.000000 35.508000 26.142000 43.199000 # C
987 5 3 0.000000 35.167000 25.112000 44.151000 # N
988 5 1 0.000000 34.937000 23.742000 43.790000 # C
989 5 1 0.000000 34.369000 25.287000 45.334000 # C
990 5 1 0.000000 34.002000 23.121000 44.718000 # C
991 5 4 0.000000 35.413000 23.184000 42.767000 # O
992 5 1 0.000000 33.641000 24.062000 45.649000 # C
993 5 4 0.000000 34.340000 26.342000 46.018000 # O
994 5 1 0.000000 33.421000 21.860000 44.685000 # C
995 5 1 0.000000 32.647000 23.805000 46.593000 # C
996 5 1 0.000000 32.421000 21.560000 45.633000 # C
997 5 1 0.000000 32.027000 22.539000 46.579000 # C
998 5 1 0.000000 31.797000 20.226000 45.610000 # C
999 5 1 0.000000 30.414000 20.083000 45.420000 # C
1000 5 1 0.000000 32.613000 19.088000 45.625000 # C
1001 5 1 0.000000 29.870000 18.819000 45.148000 # C
1002 5 1 0.000000 32.067000 17.832000 45.378000 # C
1003 5 1 0.000000 30.696000 17.686000 45.099000 # C
1004 5 3 0.000000 30.220000 16.466000 44.504000 # N
1005 5 1 0.000000 30.273000 16.376000 43.077000 # C
1006 5 1 0.000000 30.755000 15.198000 44.909000 # C
1007 5 1 0.000000 31.018000 15.203000 42.641000 # C
1008 5 4 0.000000 29.851000 17.277000 42.304000 # O
1009 5 1 0.000000 31.307000 14.473000 43.771000 # C
1010 5 4 0.000000 30.864000 14.839000 46.109000 # O
1011 5 1 0.000000 31.795000 15.095000 41.491000 # C
1012 5 1 0.000000 32.345000 13.546000 43.786000 # C
1013 5 1 0.000000 32.935000 14.258000 41.515000 # C
1014 5 1 0.000000 33.148000 13.425000 42.646000 # C
1015 5 1 0.000000 34.056000 14.504000 40.563000 # C
1016 5 1 0.000000 34.974000 13.488000 40.235000 # C
1017 5 1 0.000000 34.348000 15.827000 40.176000 # C
1018 5 1 0.000000 36.207000 13.811000 39.650000 # C
1019 5 1 0.000000 35.562000 16.140000 39.573000 # C
1020 5 1 0.000000 36.528000 15.146000 39.353000 # C
1021 5 3 0.000000 37.891000 15.521000 39.085000 # N
1022 5 1 0.000000 38.832000 15.489000 40.167000 # C
1023 5 1 0.000000 38.229000 16.756000 38.422000 # C
1024 5 1 0.000000 39.582000 16.734000 40.255000 # C
1025 5 4 0.000000 38.940000 14.529000 40.973000 # O
1026 5 1 0.000000 39.221000 17.507000 39.182000 # C
1027 5 4 0.000000 37.619000 17.191000 37.414000 # O
1028 5 1 0.000000 40.222000 17.280000 41.366000 # C
1029 5 1 0.000000 39.532000 18.864000 39.128000 # C
1030 5 1 0.000000 40.511000 18.662000 41.369000 # C
1031 5 1 0.000000 40.191000 19.439000 40.228000 # C
1032 5 1 0.000000 40.974000 19.308000 42.618000 # C
1033 5 1 0.000000 41.998000 18.725000 43.382000 # C
1034 5 1 0.000000 40.316000 20.449000 43.114000 # C
1035 5 1 0.000000 42.352000 19.270000 44.619000 # C
1036 5 1 0.000000 40.659000 20.982000 44.361000 # C
1037 5 1 0.000000 41.683000 20.396000 45.120000 # C
1038 5 3 0.000000 42.037000 20.939000 46.399000 # N
1039 5 1 0.000000 43.357000 21.049000 46.938000 # C
1040 5 1 0.000000 41.180000 21.040000 47.545000 # C
1041 5 1 0.000000 43.298000 21.247000 48.377000 # C
1042 5 4 0.000000 44.412000 21.006000 46.244000 # O
1043 5 1 0.000000 41.975000 21.246000 48.754000 # C
1044 5 4 0.000000 39.925000 20.921000 47.505000 # O
1045 5 1 0.000000 44.322000 21.400000 49.298000 # C
1046 5 1 0.000000 41.602000 21.394000 50.092000 # C
1047 5 1 0.000000 43.985000 21.563000 50.661000 # C
1048 5 1 0.000000 42.621000 21.564000 51.050000 # C
1049 5 1 0.000000 45.068000 21.752000 51.647000 # C
1050 5 1 0.000000 45.036000 22.827000 52.557000 # C
1051 5 1 0.000000 46.208000 20.937000 51.590000 # C
1052 5 1 0.000000 46.172000 23.143000 53.309000 # C
1053 5 1 0.000000 47.336000 21.252000 52.343000 # C
1054 5 1 0.000000 47.351000 22.387000 53.175000 # C
1055 5 3 0.000000 48.600000 22.902000 53.674000 # N
1056 5 1 0.000000 49.112000 24.123000 53.122000 # C
1057 5 1 0.000000 49.784000 22.097000 53.781000 # C
1058 5 1 0.000000 50.507000 23.988000 52.735000 # C
1059 5 4 0.000000 48.403000 25.137000 52.890000 # O
1060 5 1 0.000000 50.924000 22.738000 53.135000 # C
1061 5 4 0.000000 49.801000 20.942000 54.284000 # O
1062 5 1 0.000000 51.159000 24.676000 51.718000 # C
1063 5 1 0.000000 52.042000 22.130000 52.565000 # C
1064 5 1 0.000000 52.244000 24.056000 51.066000 # C
1065 5 1 0.000000 52.710000 22.799000 51.524000 # C
1066 5 1 0.000000 52.577000 24.533000 49.711000 # C
1067 5 1 0.000000 52.873000 25.886000 49.492000 # C
1068 5 1 0.000000 52.227000 23.725000 48.615000 # C
1069 5 1 0.000000 52.669000 26.453000 48.228000 # C
1070 5 1 0.000000 51.999000 24.297000 47.362000 # C
1071 5 1 0.000000 52.133000 25.685000 47.178000 # C
1072 5 3 0.000000 51.486000 26.342000 46.068000 # N
1073 5 1 0.000000 50.468000 27.328000 46.294000 # C
1074 5 1 0.000000 51.016000 25.675000 44.880000 # C
1075 5 1 0.000000 49.382000 27.193000 45.336000 # C
1076 5 4 0.000000 50.468000 28.143000 47.255000 # O
1077 5 1 0.000000 49.714000 26.194000 44.464000 # C
1078 5 4 0.000000 51.638000 24.749000 44.297000 # O
1079 5 1 0.000000 48.096000 27.726000 45.386000 # C
1080 5 1 0.000000 48.789000 25.696000 43.547000 # C
1081 5 1 0.000000 47.118000 27.229000 44.497000 # C
1082 5 1 0.000000 47.486000 26.229000 43.557000 # C
1083 5 1 0.000000 45.700000 27.650000 44.664000 # C
1084 5 1 0.000000 44.659000 26.708000 44.599000 # C
1085 5 1 0.000000 45.394000 28.974000 45.025000 # C
1086 5 1 0.000000 43.352000 27.065000 44.961000 # C
1087 5 1 0.000000 44.094000 29.323000 45.401000 # C
1088 5 1 0.000000 43.069000 28.368000 45.402000 # C
1089 5 3 0.000000 41.785000 28.698000 45.958000 # N
1090 5 1 0.000000 41.582000 29.215000 47.278000 # C
1091 5 1 0.000000 40.509000 28.158000 45.596000 # C
1092 5 1 0.000000 40.204000 29.001000 47.702000 # C
1093 5 4 0.000000 42.488000 29.731000 47.988000 # O
1094 5 1 0.000000 39.546000 28.369000 46.671000 # C
1095 5 4 0.000000 40.266000 27.570000 44.507000 # O
1096 5 1 0.000000 39.590000 29.226000 48.933000 # C
1097 5 1 0.000000 38.214000 27.973000 46.792000 # C
1098 5 1 0.000000 38.250000 28.809000 49.104000 # C
1099 5 1 0.000000 37.563000 28.205000 48.016000 # C
1100 5 1 0.000000 37.603000 28.897000 50.439000 # C
1101 5 1 0.000000 36.255000 29.272000 50.560000 # C
1102 5 1 0.000000 38.308000 28.515000 51.595000 # C
1103 5 1 0.000000 35.610000 29.208000 51.801000 # C
1104 5 1 0.000000 37.659000 28.442000 52.832000 # C
1105 5 1 0.000000 36.296000 28.756000 52.940000 # C
1106 5 3 0.000000 35.565000 28.464000 54.148000 # N
1107 5 1 0.000000 34.438000 27.578000 54.174000 # C
1108 5 1 0.000000 36.115000 28.337000 55.472000 # C
1109 5 1 0.000000 34.329000 26.919000 55.467000 # C
1110 5 4 0.000000 33.709000 27.332000 53.177000 # O
1111 5 1 0.000000 35.349000 27.379000 56.263000 # C
1112 5 4 0.000000 37.133000 28.962000 55.876000 # O
1113 5 1 0.000000 33.535000 25.842000 55.849000 # C
1114 5 1 0.000000 35.612000 26.809000 57.507000 # C
1115 5 1 0.000000 33.794000 25.210000 57.086000 # C
1116 5 1 0.000000 34.825000 25.715000 57.918000 # C
1117 5 1 0.000000 33.091000 23.942000 57.416000 # C
1118 5 1 0.000000 33.817000 22.828000 57.866000 # C
1119 5 1 0.000000 31.723000 23.798000 57.135000 # C
1120 5 1 0.000000 33.199000 21.578000 57.978000 # C
1121 5 1 0.000000 31.106000 22.547000 57.243000 # C
1122 5 1 0.000000 31.847000 21.420000 57.633000 # C
1123 5 3 0.000000 31.264000 20.105000 57.589000 # N
1124 5 1 0.000000 31.849000 18.964000 56.942000 # C
1125 5 1 0.000000 29.873000 19.768000 57.690000 # C
1126 5 1 0.000000 30.832000 17.958000 56.669000 # C
1127 5 4 0.000000 33.059000 18.876000 56.598000 # O
1128 5 4 0.000000 29.004000 20.501000 58.230000 # O
1129 5 1 0.000000 29.625000 18.449000 57.118000 # C
1130 5 1 0.000000 30.924000 16.724000 56.028000 # C
1131 5 1 0.000000 28.442000 17.728000 56.958000 # C
1132 5 1 0.000000 29.745000 15.978000 55.852000 # C
1133 5 1 0.000000 28.510000 16.481000 56.311000 # C
1134 5 2 0.000000 29.787000 15.014000 55.362000 # H
1135 5 1 0.000000 35.601000 30.438000 33.098000 # C
1136 5 1 0.000000 37.841000 30.924000 33.895000 # C
1137 5 1 0.000000 36.040000 30.590000 31.778000 # C
1138 5 1 0.000000 38.281000 31.069000 32.577000 # C
1139 5 1 0.000000 37.382000 30.898000 31.517000 # C
1140 5 2 0.000000 37.726000 31.006000 30.497000 # H
1141 5 2 0.000000 35.934000 27.393000 38.469000 # H
1142 5 2 0.000000 36.440000 32.297000 39.320000 # H
1143 5 2 0.000000 36.309000 30.722000 41.235000 # H
1144 5 2 0.000000 34.390000 29.153000 42.070000 # H
1145 5 2 0.000000 37.507000 26.631000 40.471000 # H
1146 5 2 0.000000 33.957000 27.521000 43.824000 # H
1147 5 2 0.000000 37.120000 25.025000 42.283000 # H
1148 5 2 0.000000 33.716000 21.147000 43.926000 # H
1149 5 2 0.000000 32.344000 24.565000 47.303000 # H
1150 5 2 0.000000 31.249000 22.323000 47.298000 # H
1151 5 2 0.000000 29.772000 20.955000 45.397000 # H
1152 5 2 0.000000 33.688000 19.184000 45.769000 # H
1153 5 2 0.000000 28.820000 18.729000 44.908000 # H
1154 5 2 0.000000 32.736000 16.985000 45.309000 # H
1155 5 2 0.000000 31.619000 15.781000 40.671000 # H
1156 5 2 0.000000 32.616000 13.037000 44.702000 # H
1157 5 2 0.000000 34.028000 12.804000 42.710000 # H
1158 5 2 0.000000 34.777000 12.457000 40.507000 # H
1159 5 2 0.000000 33.695000 16.647000 40.444000 # H
1160 5 2 0.000000 36.948000 13.033000 39.510000 # H
1161 5 2 0.000000 35.786000 17.183000 39.389000 # H
1162 5 2 0.000000 40.373000 16.677000 42.253000 # H
1163 5 2 0.000000 39.199000 19.481000 38.304000 # H
1164 5 2 0.000000 40.394000 20.504000 40.219000 # H
1165 5 2 0.000000 42.518000 17.847000 43.023000 # H
1166 5 2 0.000000 39.510000 20.909000 42.555000 # H
1167 5 2 0.000000 43.133000 18.793000 45.201000 # H
1168 5 2 0.000000 40.130000 21.848000 44.736000 # H
1169 5 2 0.000000 45.352000 21.414000 48.964000 # H
1170 5 2 0.000000 40.561000 21.377000 50.387000 # H
1171 5 2 0.000000 42.352000 21.688000 52.093000 # H
1172 5 2 0.000000 44.160000 23.464000 52.622000 # H
1173 5 2 0.000000 46.249000 20.090000 50.915000 # H
1174 5 2 0.000000 46.165000 24.025000 53.936000 # H
1175 5 2 0.000000 48.226000 20.651000 52.201000 # H
1176 5 2 0.000000 50.707000 25.573000 51.310000 # H
1177 5 2 0.000000 52.305000 21.109000 52.819000 # H
1178 5 2 0.000000 53.502000 22.285000 50.998000 # H
1179 5 2 0.000000 53.143000 26.529000 50.323000 # H
1180 5 2 0.000000 51.979000 22.682000 48.763000 # H
1181 5 2 0.000000 52.808000 27.518000 48.105000 # H
1182 5 2 0.000000 51.598000 23.666000 46.581000 # H
1183 5 2 0.000000 47.848000 28.436000 46.162000 # H
1184 5 2 0.000000 49.045000 24.874000 42.892000 # H
1185 5 2 0.000000 46.755000 25.833000 42.866000 # H
1186 5 2 0.000000 44.860000 25.676000 44.338000 # H
1187 5 2 0.000000 46.167000 29.730000 45.062000 # H
1188 5 2 0.000000 42.580000 26.306000 44.970000 # H
1189 5 2 0.000000 43.893000 30.335000 45.727000 # H
1190 5 2 0.000000 40.149000 29.682000 49.741000 # H
1191 5 2 0.000000 37.707000 27.467000 45.982000 # H
1192 5 2 0.000000 36.548000 27.854000 48.138000 # H
1193 5 2 0.000000 35.692000 29.591000 49.690000 # H
1194 5 2 0.000000 39.343000 28.204000 51.527000 # H
1195 5 2 0.000000 34.562000 29.472000 51.865000 # H
1196 5 2 0.000000 38.211000 28.064000 53.680000 # H
1197 5 2 0.000000 32.805000 25.443000 55.159000 # H
1198 5 2 0.000000 36.433000 27.161000 58.116000 # H
1199 5 2 0.000000 35.045000 25.240000 58.865000 # H
1200 5 2 0.000000 34.878000 22.903000 58.069000 # H
1201 5 2 0.000000 31.138000 24.640000 56.791000 # H
1202 5 2 0.000000 33.785000 20.726000 58.298000 # H
1203 5 2 0.000000 30.065000 22.454000 56.959000 # H
1204 5 2 0.000000 31.873000 16.354000 55.666000 # H
1205 5 2 0.000000 27.495000 18.119000 57.305000 # H
1206 5 2 0.000000 27.606000 15.899000 56.166000 # H
1207 5 2 0.000000 34.563000 30.203000 33.292000 # H
1208 5 2 0.000000 38.543000 31.052000 34.710000 # H
1209 5 2 0.000000 35.347000 30.458000 30.959000 # H
1210 5 2 0.000000 39.317000 31.308000 32.373000 # H
1211 6 3 0.000000 57.440000 48.250000 35.703000 # N
1212 6 1 0.000000 57.301000 49.259000 34.702000 # C
1213 6 1 0.000000 56.589000 48.127000 36.848000 # C
1214 6 1 0.000000 57.902000 46.917000 35.465000 # C
1215 6 1 0.000000 56.573000 46.744000 37.318000 # C
1216 6 4 0.000000 55.928000 49.076000 37.344000 # O
1217 6 1 0.000000 57.381000 46.009000 36.484000 # C
1218 6 4 0.000000 58.647000 46.589000 34.503000 # O
1219 6 1 0.000000 55.918000 46.160000 38.399000 # C
1220 6 1 0.000000 57.602000 44.649000 36.686000 # C
1221 6 1 0.000000 56.141000 44.785000 38.652000 # C
1222 6 1 0.000000 56.984000 44.038000 37.788000 # C
1223 6 1 0.000000 55.556000 44.154000 39.852000 # C
1224 6 1 0.000000 56.381000 43.462000 40.752000 # C
1225 6 1 0.000000 54.189000 44.296000 40.149000 # C
1226 6 1 0.000000 55.866000 42.969000 41.952000 # C
1227 6 1 0.000000 53.669000 43.779000 41.341000 # C
1228 6 1 0.000000 54.509000 43.133000 42.268000 # C
1229 6 3 0.000000 54.004000 42.758000 43.568000 # N
1230 6 1 0.000000 53.252000 43.640000 44.413000 # C
1231 6 1 0.000000 54.645000 41.867000 44.497000 # C
1232 6 1 0.000000 53.460000 43.304000 45.814000 # C
1233 6 4 0.000000 52.576000 44.619000 44.000000 # O
1234 6 1 0.000000 54.319000 42.237000 45.870000 # C
1235 6 4 0.000000 55.353000 40.884000 44.160000 # O
1236 6 1 0.000000 53.021000 43.955000 46.960000 # C
1237 6 1 0.000000 54.818000 41.770000 47.087000 # C
1238 6 1 0.000000 53.495000 43.503000 48.209000 # C
1239 6 1 0.000000 54.404000 42.417000 48.269000 # C
1240 6 1 0.000000 53.037000 44.183000 49.432000 # C
1241 6 1 0.000000 53.955000 44.792000 50.302000 # C
1242 6 1 0.000000 51.663000 44.355000 49.646000 # C
1243 6 1 0.000000 53.498000 45.646000 51.317000 # C
1244 6 1 0.000000 51.214000 45.184000 50.669000 # C
1245 6 1 0.000000 52.125000 45.869000 51.493000 # C
1246 6 3 0.000000 51.666000 46.975000 52.291000 # N
1247 6 1 0.000000 51.638000 48.261000 51.663000 # C
1248 6 1 0.000000 50.388000 46.926000 52.941000 # C
1249 6 1 0.000000 50.315000 48.865000 51.739000 # C
1250 6 4 0.000000 52.600000 48.738000 51.005000 # O
1251 6 1 0.000000 49.548000 48.046000 52.535000 # C
1252 6 4 0.000000 50.002000 45.960000 53.648000 # O
1253 6 1 0.000000 49.734000 49.708000 50.796000 # C
1254 6 1 0.000000 48.158000 48.078000 52.477000 # C
1255 6 1 0.000000 48.330000 49.671000 50.621000 # C
1256 6 1 0.000000 47.549000 48.910000 51.530000 # C
1257 6 1 0.000000 47.732000 50.113000 49.329000 # C
1258 6 1 0.000000 46.385000 50.516000 49.246000 # C
1259 6 1 0.000000 48.444000 49.894000 48.133000 # C
1260 6 1 0.000000 45.740000 50.572000 48.002000 # C
1261 6 1 0.000000 47.807000 49.975000 46.900000 # C
1262 6 1 0.000000 46.435000 50.261000 46.823000 # C
1263 6 3 0.000000 45.714000 49.980000 45.609000 # N
1264 6 1 0.000000 44.953000 48.767000 45.533000 # C
1265 6 1 0.000000 46.347000 50.026000 44.314000 # C
1266 6 1 0.000000 45.256000 48.026000 44.317000 # C
1267 6 4 0.000000 44.176000 48.369000 46.440000 # O
1268 6 1 0.000000 46.101000 48.799000 43.566000 # C
1269 6 4 0.000000 47.139000 50.934000 43.961000 # O
1270 6 1 0.000000 45.108000 46.661000 44.079000 # C
1271 6 1 0.000000 46.806000 48.266000 42.488000 # C
1272 6 1 0.000000 45.843000 46.074000 43.026000 # C
1273 6 1 0.000000 46.665000 46.895000 42.214000 # C
1274 6 1 0.000000 45.886000 44.600000 42.898000 # C
1275 6 1 0.000000 44.703000 43.846000 42.973000 # C
1276 6 1 0.000000 47.120000 43.929000 42.815000 # C
1277 6 1 0.000000 44.756000 42.450000 42.972000 # C
1278 6 1 0.000000 47.172000 42.531000 42.833000 # C
1279 6 1 0.000000 45.988000 41.783000 42.908000 # C
1280 6 3 0.000000 46.038000 40.350000 42.927000 # N
1281 6 1 0.000000 45.126000 39.461000 42.276000 # C
1282 6 1 0.000000 46.673000 39.536000 43.923000 # C
1283 6 1 0.000000 45.232000 38.127000 42.845000 # C
1284 6 4 0.000000 44.364000 39.797000 41.326000 # O
1285 6 1 0.000000 46.174000 38.164000 43.847000 # C
1286 6 4 0.000000 47.505000 39.967000 44.766000 # O
1287 6 1 0.000000 44.545000 36.966000 42.528000 # C
1288 6 1 0.000000 46.479000 37.026000 44.598000 # C
1289 6 1 0.000000 44.833000 35.791000 43.258000 # C
1290 6 1 0.000000 45.807000 35.827000 44.289000 # C
1291 6 1 0.000000 44.126000 34.543000 42.910000 # C
1292 6 1 0.000000 44.838000 33.352000 42.666000 # C
1293 6 1 0.000000 42.742000 34.570000 42.685000 # C
1294 6 1 0.000000 44.191000 32.250000 42.099000 # C
1295 6 1 0.000000 42.098000 33.470000 42.123000 # C
1296 6 1 0.000000 42.823000 32.313000 41.777000 # C
1297 6 3 0.000000 42.242000 31.333000 40.896000 # N
1298 6 1 0.000000 42.733000 31.235000 39.552000 # C
1299 6 1 0.000000 40.824000 31.198000 40.712000 # C
1300 6 1 0.000000 41.646000 31.237000 38.587000 # C
1301 6 4 0.000000 43.954000 31.271000 39.250000 # O
1302 6 1 0.000000 40.467000 31.219000 39.298000 # C
1303 6 4 0.000000 39.996000 31.166000 41.662000 # O
1304 6 1 0.000000 41.694000 31.707000 37.280000 # C
1305 6 1 0.000000 39.267000 31.633000 38.722000 # C
1306 6 1 0.000000 40.513000 32.208000 36.694000 # C
1307 6 1 0.000000 39.291000 32.127000 37.406000 # C
1308 6 1 0.000000 40.666000 33.144000 35.565000 # C
1309 6 1 0.000000 41.388000 32.763000 34.425000 # C
1310 6 1 0.000000 40.422000 34.509000 35.795000 # C
1311 6 1 0.000000 41.988000 33.737000 33.618000 # C
1312 6 1 0.000000 41.043000 35.478000 35.004000 # C
1313 6 1 0.000000 41.905000 35.100000 33.959000 # C
1314 6 3 0.000000 42.881000 36.028000 33.443000 # N
1315 6 1 0.000000 44.285000 35.755000 33.561000 # C
1316 6 1 0.000000 42.827000 37.459000 33.617000 # C
1317 6 1 0.000000 45.031000 36.960000 33.889000 # C
1318 6 4 0.000000 44.795000 34.605000 33.484000 # O
1319 6 1 0.000000 44.150000 38.004000 33.915000 # C
1320 6 4 0.000000 41.770000 38.138000 33.546000 # O
1321 6 1 0.000000 46.328000 37.082000 34.381000 # C
1322 6 1 0.000000 44.528000 39.260000 34.390000 # C
1323 6 1 0.000000 46.744000 38.327000 34.902000 # C
1324 6 1 0.000000 45.840000 39.422000 34.874000 # C
1325 6 1 0.000000 48.056000 38.424000 35.600000 # C
1326 6 1 0.000000 48.171000 39.116000 36.818000 # C
1327 6 1 0.000000 49.166000 37.707000 35.120000 # C
1328 6 1 0.000000 49.347000 39.031000 37.576000 # C
1329 6 1 0.000000 50.331000 37.611000 35.886000 # C
1330 6 1 0.000000 50.423000 38.245000 37.132000 # C
1331 6 3 0.000000 51.555000 37.991000 37.981000 # N
1332 6 1 0.000000 51.989000 36.688000 38.384000 # C
1333 6 1 0.000000 52.132000 38.867000 38.957000 # C
1334 6 1 0.000000 52.824000 36.776000 39.576000 # C
1335 6 4 0.000000 51.648000 35.615000 37.815000 # O
1336 6 1 0.000000 52.922000 38.106000 39.917000 # C
1337 6 4 0.000000 51.960000 40.116000 38.983000 # O
1338 6 1 0.000000 53.363000 35.772000 40.380000 # C
1339 6 1 0.000000 53.613000 38.516000 41.057000 # C
1340 6 1 0.000000 54.043000 36.148000 41.561000 # C
1341 6 1 0.000000 54.183000 37.527000 41.877000 # C
1342 6 1 0.000000 54.506000 35.111000 42.520000 # C
1343 6 1 0.000000 55.737000 35.247000 43.183000 # C
1344 6 1 0.000000 53.673000 34.026000 42.848000 # C
1345 6 1 0.000000 56.100000 34.348000 44.194000 # C
1346 6 1 0.000000 54.033000 33.136000 43.865000 # C
1347 6 1 0.000000 55.233000 33.308000 44.570000 # C
1348 6 3 0.000000 55.505000 32.547000 45.764000 # N
1349 6 1 0.000000 55.716000 33.161000 47.041000 # C
1350 6 1 0.000000 54.951000 31.262000 46.104000 # C
1351 6 1 0.000000 55.280000 32.284000 48.116000 # C
1352 6 4 0.000000 56.129000 34.341000 47.199000 # O
1353 6 1 0.000000 54.812000 31.123000 47.550000 # C
1354 6 4 0.000000 54.618000 30.390000 45.256000 # O
1355 6 1 0.000000 55.100000 32.558000 49.469000 # C
1356 6 1 0.000000 54.168000 30.151000 48.313000 # C
1357 6 1 0.000000 54.417000 31.616000 50.270000 # C
1358 6 1 0.000000 53.971000 30.405000 49.685000 # C
1359 6 1 0.000000 54.044000 31.981000 51.662000 # C
1360 6 1 0.000000 52.730000 31.784000 52.117000 # C
1361 6 1 0.000000 54.954000 32.668000 52.482000 # C
1362 6 1 0.000000 52.318000 32.312000 53.345000 # C
1363 6 1 0.000000 54.541000 33.200000 53.708000 # C
1364 6 1 0.000000 53.211000 33.055000 54.134000 # C
1365 6 3 0.000000 52.737000 33.736000 55.310000 # N
1366 6 1 0.000000 51.563000 34.561000 55.370000 # C
1367 6 1 0.000000 53.513000 34.158000 56.440000 # C
1368 6 1 0.000000 51.628000 35.455000 56.518000 # C
1369 6 4 0.000000 50.641000 34.560000 54.510000 # O
1370 6 4 0.000000 54.619000 33.656000 56.768000 # O
1371 6 1 0.000000 52.819000 35.216000 57.168000 # C
1372 6 1 0.000000 50.748000 36.447000 56.947000 # C
1373 6 1 0.000000 53.194000 35.953000 58.292000 # C
1374 6 1 0.000000 51.104000 37.206000 58.076000 # C
1375 6 1 0.000000 52.324000 36.961000 58.742000 # C
1376 6 2 0.000000 50.439000 37.979000 58.435000 # H
1377 6 1 0.000000 57.892000 50.517000 34.885000 # C
1378 6 1 0.000000 56.555000 49.004000 33.539000 # C
1379 6 1 0.000000 57.743000 51.511000 33.912000 # C
1380 6 1 0.000000 56.402000 49.999000 32.570000 # C
1381 6 1 0.000000 56.992000 51.255000 32.757000 # C
1382 6 2 0.000000 56.867000 52.025000 32.008000 # H
1383 6 2 0.000000 55.295000 46.760000 39.052000 # H
1384 6 2 0.000000 58.241000 44.079000 36.025000 # H
1385 6 2 0.000000 57.161000 42.988000 37.977000 # H
1386 6 2 0.000000 57.440000 43.355000 40.552000 # H
1387 6 2 0.000000 53.528000 44.817000 39.462000 # H
1388 6 2 0.000000 56.549000 42.511000 42.654000 # H
1389 6 2 0.000000 52.619000 43.900000 41.546000 # H
1390 6 2 0.000000 52.357000 44.806000 46.879000 # H
1391 6 2 0.000000 55.523000 40.948000 47.120000 # H
1392 6 2 0.000000 54.786000 42.075000 49.221000 # H
1393 6 2 0.000000 55.019000 44.676000 50.143000 # H
1394 6 2 0.000000 50.941000 43.890000 48.978000 # H
1395 6 2 0.000000 54.212000 46.186000 51.922000 # H
1396 6 2 0.000000 50.151000 45.366000 50.754000 # H
1397 6 2 0.000000 50.373000 50.236000 50.098000 # H
1398 6 2 0.000000 47.566000 47.374000 53.047000 # H
1399 6 2 0.000000 46.480000 48.832000 51.400000 # H
1400 6 2 0.000000 45.809000 50.705000 50.145000 # H
1401 6 2 0.000000 49.467000 49.541000 48.146000 # H
1402 6 2 0.000000 44.674000 50.772000 47.966000 # H
1403 6 2 0.000000 48.366000 49.696000 46.016000 # H
1404 6 2 0.000000 44.540000 46.049000 44.770000 # H
1405 6 2 0.000000 47.512000 48.867000 41.931000 # H
1406 6 2 0.000000 47.247000 46.460000 41.410000 # H
1407 6 2 0.000000 43.743000 44.339000 43.038000 # H
1408 6 2 0.000000 48.049000 44.485000 42.774000 # H
1409 6 2 0.000000 43.832000 41.887000 43.050000 # H
1410 6 2 0.000000 48.131000 42.032000 42.788000 # H
1411 6 2 0.000000 43.823000 36.968000 41.721000 # H
1412 6 2 0.000000 47.210000 37.062000 45.396000 # H
1413 6 2 0.000000 46.034000 34.931000 44.856000 # H
1414 6 2 0.000000 45.909000 33.308000 42.843000 # H
1415 6 2 0.000000 42.166000 35.466000 42.886000 # H
1416 6 2 0.000000 44.768000 31.374000 41.832000 # H
1417 6 2 0.000000 41.048000 33.564000 41.881000 # H
1418 6 2 0.000000 42.657000 31.870000 36.810000 # H
1419 6 2 0.000000 38.363000 31.704000 39.318000 # H
1420 6 2 0.000000 38.389000 32.559000 36.994000 # H
1421 6 2 0.000000 41.590000 31.716000 34.229000 # H
1422 6 2 0.000000 39.881000 34.827000 36.677000 # H
1423 6 2 0.000000 42.623000 33.420000 32.802000 # H
1424 6 2 0.000000 40.942000 36.514000 35.298000 # H
1425 6 2 0.000000 46.956000 36.204000 34.442000 # H
1426 6 2 0.000000 43.813000 40.068000 34.450000 # H
1427 6 2 0.000000 46.135000 40.385000 35.267000 # H
1428 6 2 0.000000 47.332000 39.667000 37.225000 # H
1429 6 2 0.000000 49.120000 37.183000 34.175000 # H
1430 6 2 0.000000 49.389000 39.516000 38.543000 # H
1431 6 2 0.000000 51.154000 37.010000 35.520000 # H
1432 6 2 0.000000 53.228000 34.732000 40.111000 # H
1433 6 2 0.000000 53.677000 39.562000 41.324000 # H
1434 6 2 0.000000 54.676000 37.832000 42.790000 # H
1435 6 2 0.000000 56.409000 36.061000 42.937000 # H
1436 6 2 0.000000 52.711000 33.909000 42.365000 # H
1437 6 2 0.000000 57.040000 34.489000 44.713000 # H
1438 6 2 0.000000 53.330000 32.365000 44.145000 # H
1439 6 2 0.000000 55.393000 33.521000 49.863000 # H
1440 6 2 0.000000 53.781000 29.252000 47.855000 # H
1441 6 2 0.000000 53.438000 29.675000 50.280000 # H
1442 6 2 0.000000 51.999000 31.279000 51.498000 # H
1443 6 2 0.000000 55.973000 32.831000 52.160000 # H
1444 6 2 0.000000 51.293000 32.173000 53.662000 # H
1445 6 2 0.000000 55.249000 33.777000 54.289000 # H
1446 6 2 0.000000 49.823000 36.637000 56.421000 # H
1447 6 2 0.000000 54.133000 35.768000 58.796000 # H
1448 6 2 0.000000 52.590000 37.556000 59.610000 # H
1449 6 2 0.000000 58.476000 50.722000 35.773000 # H
1450 6 2 0.000000 56.092000 48.037000 33.390000 # H
1451 6 2 0.000000 58.199000 52.482000 34.055000 # H
1452 6 2 0.000000 55.822000 49.803000 31.677000 # H
1453 7 3 0.000000 29.450000 44.589000 12.452000 # N
1454 7 1 0.000000 29.729000 44.349000 11.072000 # C
1455 7 1 0.000000 28.216000 44.258000 13.095000 # C
1456 7 1 0.000000 30.418000 44.541000 13.505000 # C
1457 7 1 0.000000 28.430000 44.053000 14.525000 # C
1458 7 4 0.000000 27.117000 44.129000 12.494000 # O
1459 7 1 0.000000 29.769000 44.236000 14.777000 # C
1460 7 4 0.000000 31.653000 44.729000 13.339000 # O
1461 7 1 0.000000 27.532000 43.741000 15.543000 # C
1462 7 1 0.000000 30.293000 44.139000 16.063000 # C
1463 7 1 0.000000 28.025000 43.663000 16.867000 # C
1464 7 1 0.000000 29.408000 43.862000 17.117000 # C
1465 7 1 0.000000 27.088000 43.448000 17.989000 # C
1466 7 1 0.000000 27.079000 44.338000 19.073000 # C
1467 7 1 0.000000 26.150000 42.402000 17.955000 # C
1468 7 1 0.000000 26.117000 44.223000 20.078000 # C
1469 7 1 0.000000 25.202000 42.272000 18.977000 # C
1470 7 1 0.000000 25.159000 43.198000 20.036000 # C
1471 7 3 0.000000 24.076000 43.162000 20.990000 # N
1472 7 1 0.000000 22.693000 43.073000 20.618000 # C
1473 7 1 0.000000 24.041000 43.848000 22.253000 # C
1474 7 1 0.000000 21.853000 43.713000 21.619000 # C
1475 7 4 0.000000 22.276000 42.582000 19.535000 # O
1476 7 1 0.000000 22.670000 44.201000 22.608000 # C
1477 7 4 0.000000 25.053000 44.071000 22.965000 # O
1478 7 1 0.000000 20.485000 43.953000 21.612000 # C
1479 7 1 0.000000 22.166000 44.990000 23.642000 # C
1480 7 1 0.000000 19.938000 44.737000 22.649000 # C
1481 7 1 0.000000 20.784000 45.264000 23.657000 # C
1482 7 1 0.000000 18.489000 44.999000 22.654000 # C
1483 7 1 0.000000 17.997000 46.313000 22.604000 # C
1484 7 1 0.000000 17.599000 43.923000 22.554000 # C
1485 7 1 0.000000 16.635000 46.542000 22.354000 # C
1486 7 1 0.000000 16.245000 44.154000 22.330000 # C
1487 7 1 0.000000 15.752000 45.464000 22.190000 # C
1488 7 3 0.000000 14.451000 45.674000 21.614000 # N
1489 7 1 0.000000 14.377000 45.753000 20.187000 # C
1490 7 1 0.000000 13.363000 44.793000 21.926000 # C
1491 7 1 0.000000 13.434000 44.784000 19.645000 # C
1492 7 4 0.000000 15.140000 46.470000 19.487000 # O
1493 7 1 0.000000 12.803000 44.199000 20.718000 # C
1494 7 4 0.000000 13.043000 44.469000 23.099000 # O
1495 7 1 0.000000 13.529000 44.132000 18.418000 # C
1496 7 1 0.000000 12.173000 42.964000 20.601000 # C
1497 7 1 0.000000 13.013000 42.820000 18.301000 # C
1498 7 1 0.000000 12.263000 42.283000 19.381000 # C
1499 7 1 0.000000 13.538000 41.908000 17.246000 # C
1500 7 1 0.000000 12.792000 40.801000 16.798000 # C
1501 7 1 0.000000 14.892000 42.005000 16.867000 # C
1502 7 1 0.000000 13.420000 39.761000 16.097000 # C
1503 7 1 0.000000 15.506000 40.983000 16.151000 # C
1504 7 1 0.000000 14.793000 39.825000 15.806000 # C
1505 7 3 0.000000 15.505000 38.639000 15.409000 # N
1506 7 1 0.000000 15.716000 37.611000 16.387000 # C
1507 7 1 0.000000 16.786000 38.700000 14.748000 # C
1508 7 1 0.000000 17.111000 37.199000 16.431000 # C
1509 7 4 0.000000 14.815000 37.176000 17.151000 # O
1510 7 1 0.000000 17.765000 37.857000 15.423000 # C
1511 7 4 0.000000 17.050000 39.504000 13.821000 # O
1512 7 1 0.000000 17.803000 36.605000 17.484000 # C
1513 7 1 0.000000 19.157000 37.909000 15.374000 # C
1514 7 1 0.000000 19.213000 36.679000 17.496000 # C
1515 7 1 0.000000 19.882000 37.306000 16.415000 # C
1516 7 1 0.000000 19.956000 36.265000 18.708000 # C
1517 7 1 0.000000 19.655000 35.051000 19.346000 # C
1518 7 1 0.000000 20.890000 37.136000 19.300000 # C
1519 7 1 0.000000 20.272000 34.717000 20.554000 # C
1520 7 1 0.000000 21.493000 36.808000 20.519000 # C
1521 7 1 0.000000 21.189000 35.594000 21.152000 # C
1522 7 3 0.000000 21.805000 35.255000 22.403000 # N
1523 7 1 0.000000 22.249000 33.957000 22.805000 # C
1524 7 1 0.000000 21.683000 35.983000 23.633000 # C
1525 7 1 0.000000 22.426000 33.911000 24.248000 # C
1526 7 4 0.000000 22.478000 33.007000 22.005000 # O
1527 7 1 0.000000 22.085000 35.142000 24.759000 # C
1528 7 4 0.000000 21.245000 37.163000 23.719000 # O
1529 7 1 0.000000 22.836000 32.868000 25.062000 # C
1530 7 1 0.000000 22.132000 35.395000 26.132000 # C
1531 7 1 0.000000 22.907000 33.088000 26.456000 # C
1532 7 1 0.000000 22.558000 34.358000 26.984000 # C
1533 7 1 0.000000 23.367000 31.991000 27.330000 # C
1534 7 1 0.000000 24.398000 32.198000 28.267000 # C
1535 7 1 0.000000 22.872000 30.693000 27.133000 # C
1536 7 1 0.000000 24.995000 31.107000 28.907000 # C
1537 7 1 0.000000 23.465000 29.609000 27.774000 # C
1538 7 1 0.000000 24.566000 29.795000 28.632000 # C
1539 7 3 0.000000 25.385000 28.673000 29.013000 # N
1540 7 1 0.000000 26.696000 28.551000 28.445000 # C
1541 7 1 0.000000 24.910000 27.318000 28.975000 # C
1542 7 1 0.000000 26.924000 27.217000 27.913000 # C
1543 7 4 0.000000 27.494000 29.516000 28.315000 # O
1544 7 1 0.000000 25.822000 26.455000 28.233000 # C
1545 7 4 0.000000 23.797000 26.954000 29.442000 # O
1546 7 1 0.000000 27.756000 26.875000 26.853000 # C
1547 7 1 0.000000 25.521000 25.287000 27.534000 # C
1548 7 1 0.000000 27.435000 25.744000 26.075000 # C
1549 7 1 0.000000 26.339000 24.926000 26.449000 # C
1550 7 1 0.000000 27.981000 25.690000 24.707000 # C
1551 7 1 0.000000 29.365000 25.773000 24.497000 # C
1552 7 1 0.000000 27.111000 25.936000 23.632000 # C
1553 7 1 0.000000 29.861000 26.249000 23.276000 # C
1554 7 1 0.000000 27.605000 26.435000 22.425000 # C
1555 7 1 0.000000 28.982000 26.680000 22.266000 # C
1556 7 3 0.000000 29.450000 27.588000 21.247000 # N
1557 7 1 0.000000 30.142000 28.794000 21.604000 # C
1558 7 1 0.000000 28.685000 27.996000 20.096000 # C
1559 7 1 0.000000 29.733000 29.905000 20.760000 # C
1560 7 4 0.000000 30.930000 28.899000 22.582000 # O
1561 7 1 0.000000 28.853000 29.424000 19.831000 # C
1562 7 4 0.000000 27.949000 27.225000 19.427000 # O
1563 7 1 0.000000 29.919000 31.271000 20.957000 # C
1564 7 1 0.000000 28.134000 30.285000 19.001000 # C
1565 7 1 0.000000 29.187000 32.179000 20.160000 # C
1566 7 1 0.000000 28.316000 31.671000 19.160000 # C
1567 7 1 0.000000 29.231000 33.633000 20.483000 # C
1568 7 1 0.000000 28.053000 34.399000 20.500000 # C
1569 7 1 0.000000 30.432000 34.225000 20.911000 # C
1570 7 1 0.000000 28.063000 35.707000 21.005000 # C
1571 7 1 0.000000 30.436000 35.523000 21.429000 # C
1572 7 1 0.000000 29.249000 36.265000 21.509000 # C
1573 7 3 0.000000 29.239000 37.524000 22.203000 # N
1574 7 1 0.000000 29.687000 37.709000 23.550000 # C
1575 7 1 0.000000 28.390000 38.651000 21.960000 # C
1576 7 1 0.000000 29.126000 38.934000 24.108000 # C
1577 7 4 0.000000 30.418000 36.895000 24.177000 # O
1578 7 1 0.000000 28.347000 39.516000 23.134000 # C
1579 7 4 0.000000 27.760000 38.850000 20.886000 # O
1580 7 1 0.000000 29.187000 39.450000 25.402000 # C
1581 7 1 0.000000 27.622000 40.681000 23.380000 # C
1582 7 1 0.000000 28.440000 40.614000 25.698000 # C
1583 7 1 0.000000 27.680000 41.235000 24.671000 # C
1584 7 1 0.000000 28.359000 41.115000 27.095000 # C
1585 7 1 0.000000 28.375000 42.494000 27.364000 # C
1586 7 1 0.000000 28.170000 40.217000 28.161000 # C
1587 7 1 0.000000 28.148000 42.965000 28.663000 # C
1588 7 1 0.000000 27.933000 40.690000 29.456000 # C
1589 7 1 0.000000 27.887000 42.068000 29.713000 # C
1590 7 3 0.000000 27.417000 42.568000 30.981000 # N
1591 7 1 0.000000 26.272000 43.422000 31.099000 # C
1592 7 1 0.000000 27.436000 41.865000 32.237000 # C
1593 7 1 0.000000 25.607000 43.221000 32.377000 # C
1594 7 4 0.000000 25.847000 44.167000 30.176000 # O
1595 7 1 0.000000 26.313000 42.273000 33.077000 # C
1596 7 4 0.000000 28.300000 41.003000 32.551000 # O
1597 7 1 0.000000 24.362000 43.668000 32.810000 # C
1598 7 1 0.000000 25.829000 41.742000 34.271000 # C
1599 7 1 0.000000 23.818000 43.126000 33.995000 # C
1600 7 1 0.000000 24.570000 42.175000 34.730000 # C
1601 7 1 0.000000 22.412000 43.443000 34.361000 # C
1602 7 1 0.000000 21.521000 42.413000 34.703000 # C
1603 7 1 0.000000 21.922000 44.751000 34.219000 # C
1604 7 1 0.000000 20.154000 42.677000 34.844000 # C
1605 7 1 0.000000 20.554000 45.013000 34.355000 # C
1606 7 1 0.000000 19.655000 43.973000 34.636000 # C
1607 7 3 0.000000 18.235000 44.202000 34.616000 # N
1608 7 1 0.000000 17.282000 43.418000 33.882000 # C
1609 7 1 0.000000 17.552000 45.442000 34.851000 # C
1610 7 1 0.000000 16.048000 44.168000 33.687000 # C
1611 7 4 0.000000 17.507000 42.270000 33.412000 # O
1612 7 4 0.000000 18.037000 46.406000 35.498000 # O
1613 7 1 0.000000 16.214000 45.405000 34.272000 # C
1614 7 1 0.000000 14.879000 43.833000 33.006000 # C
1615 7 1 0.000000 15.213000 46.375000 34.214000 # C
1616 7 1 0.000000 13.856000 44.795000 32.932000 # C
1617 7 1 0.000000 14.026000 46.062000 33.530000 # C
1618 7 2 0.000000 12.935000 44.561000 32.414000 # H
1619 7 1 0.000000 29.337000 45.283000 10.101000 # C
1620 7 1 0.000000 30.380000 43.168000 10.677000 # C
1621 7 1 0.000000 29.596000 45.040000 8.749000 # C
1622 7 1 0.000000 30.634000 42.924000 9.325000 # C
1623 7 1 0.000000 30.238000 43.857000 8.359000 # C
1624 7 2 0.000000 30.431000 43.663000 7.312000 # H
1625 7 2 0.000000 26.479000 43.613000 15.324000 # H
1626 7 2 0.000000 31.348000 44.287000 16.253000 # H
1627 7 2 0.000000 29.791000 43.806000 18.127000 # H
1628 7 2 0.000000 27.782000 45.162000 19.112000 # H
1629 7 2 0.000000 26.145000 41.693000 17.132000 # H
1630 7 2 0.000000 26.094000 44.974000 20.856000 # H
1631 7 2 0.000000 24.494000 41.462000 18.929000 # H
1632 7 2 0.000000 19.872000 43.570000 20.807000 # H
1633 7 2 0.000000 22.823000 45.399000 24.400000 # H
1634 7 2 0.000000 20.375000 45.881000 24.446000 # H
1635 7 2 0.000000 18.674000 47.154000 22.671000 # H
1636 7 2 0.000000 17.967000 42.899000 22.589000 # H
1637 7 2 0.000000 16.279000 47.553000 22.222000 # H
1638 7 2 0.000000 15.598000 43.303000 22.169000 # H
1639 7 2 0.000000 14.148000 44.564000 17.640000 # H
1640 7 2 0.000000 11.751000 42.476000 21.469000 # H
1641 7 2 0.000000 11.888000 41.272000 19.337000 # H
1642 7 2 0.000000 11.744000 40.699000 17.059000 # H
1643 7 2 0.000000 15.517000 42.814000 17.223000 # H
1644 7 2 0.000000 12.858000 38.865000 15.860000 # H
1645 7 2 0.000000 16.571000 41.053000 15.974000 # H
1646 7 2 0.000000 17.259000 36.210000 18.335000 # H
1647 7 2 0.000000 19.668000 38.475000 14.606000 # H
1648 7 2 0.000000 20.963000 37.384000 16.415000 # H
1649 7 2 0.000000 18.940000 34.366000 18.911000 # H
1650 7 2 0.000000 21.128000 38.087000 18.840000 # H
1651 7 2 0.000000 20.012000 33.783000 21.039000 # H
1652 7 2 0.000000 22.194000 37.497000 20.970000 # H
1653 7 2 0.000000 23.114000 31.917000 24.624000 # H
1654 7 2 0.000000 21.849000 36.361000 26.532000 # H
1655 7 2 0.000000 22.608000 34.536000 28.052000 # H
1656 7 2 0.000000 24.789000 33.196000 28.441000 # H
1657 7 2 0.000000 22.064000 30.510000 26.435000 # H
1658 7 2 0.000000 25.845000 31.271000 29.556000 # H
1659 7 2 0.000000 23.113000 28.616000 27.525000 # H
1660 7 2 0.000000 28.507000 27.581000 26.518000 # H
1661 7 2 0.000000 24.602000 24.747000 27.731000 # H
1662 7 2 0.000000 26.045000 24.090000 25.830000 # H
1663 7 2 0.000000 30.056000 25.589000 25.312000 # H
1664 7 2 0.000000 26.039000 25.893000 23.776000 # H
1665 7 2 0.000000 30.926000 26.401000 23.169000 # H
1666 7 2 0.000000 26.893000 26.743000 21.673000 # H
1667 7 2 0.000000 30.541000 31.608000 21.774000 # H
1668 7 2 0.000000 27.406000 29.899000 18.301000 # H
1669 7 2 0.000000 27.745000 32.347000 18.538000 # H
1670 7 2 0.000000 27.107000 33.971000 20.192000 # H
1671 7 2 0.000000 31.361000 33.672000 20.888000 # H
1672 7 2 0.000000 27.131000 36.255000 21.073000 # H
1673 7 2 0.000000 31.363000 35.940000 21.801000 # H
1674 7 2 0.000000 29.771000 38.944000 26.161000 # H
1675 7 2 0.000000 27.004000 41.127000 22.613000 # H
1676 7 2 0.000000 27.080000 42.109000 24.887000 # H
1677 7 2 0.000000 28.540000 43.208000 26.567000 # H
1678 7 2 0.000000 28.135000 39.150000 27.978000 # H
1679 7 2 0.000000 28.135000 44.032000 28.842000 # H
1680 7 2 0.000000 27.709000 39.973000 30.232000 # H
1681 7 2 0.000000 23.790000 44.342000 32.188000 # H
1682 7 2 0.000000 26.380000 40.978000 34.801000 # H
1683 7 2 0.000000 24.167000 41.742000 35.636000 # H
1684 7 2 0.000000 21.865000 41.391000 34.797000 # H
1685 7 2 0.000000 22.585000 45.565000 33.961000 # H
1686 7 2 0.000000 19.481000 41.862000 35.078000 # H
1687 7 2 0.000000 20.198000 46.021000 34.178000 # H
1688 7 2 0.000000 14.765000 42.866000 32.538000 # H
1689 7 2 0.000000 15.348000 47.348000 34.668000 # H
1690 7 2 0.000000 13.231000 46.797000 33.463000 # H
1691 7 2 0.000000 28.843000 46.199000 10.395000 # H
1692 7 2 0.000000 30.684000 42.440000 11.418000 # H
1693 7 2 0.000000 29.291000 45.760000 8.001000 # H
1694 7 2 0.000000 31.130000 42.011000 9.021000 # H
1695 8 3 0.000000 43.599000 47.012000 5.931000 # N
1696 8 1 0.000000 43.631000 47.838000 4.765000 # C
1697 8 1 0.000000 44.730000 46.309000 6.453000 # C
1698 8 1 0.000000 42.770000 47.241000 7.075000 # C
1699 8 1 0.000000 44.566000 46.080000 7.886000 # C
1700 8 4 0.000000 45.733000 45.974000 5.769000 # O
1701 8 1 0.000000 43.367000 46.638000 8.263000 # C
1702 8 4 0.000000 41.685000 47.882000 7.045000 # O
1703 8 1 0.000000 45.386000 45.426000 8.801000 # C
1704 8 1 0.000000 42.902000 46.560000 9.573000 # C
1705 8 1 0.000000 44.932000 45.303000 10.136000 # C
1706 8 1 0.000000 43.689000 45.876000 10.512000 # C
1707 8 1 0.000000 45.718000 44.519000 11.111000 # C
1708 8 1 0.000000 45.106000 43.480000 11.828000 # C
1709 8 1 0.000000 47.094000 44.749000 11.281000 # C
1710 8 1 0.000000 45.861000 42.649000 12.658000 # C
1711 8 1 0.000000 47.845000 43.932000 12.133000 # C
1712 8 1 0.000000 47.241000 42.856000 12.810000 # C
1713 8 3 0.000000 48.050000 41.915000 13.547000 # N
1714 8 1 0.000000 49.237000 41.305000 13.021000 # C
1715 8 1 0.000000 47.567000 40.947000 14.495000 # C
1716 8 1 0.000000 49.445000 39.993000 13.617000 # C
1717 8 4 0.000000 49.951000 41.803000 12.110000 # O
1718 8 1 0.000000 48.422000 39.764000 14.502000 # C
1719 8 4 0.000000 46.568000 41.122000 15.238000 # O
1720 8 1 0.000000 50.394000 39.023000 13.325000 # C
1721 8 1 0.000000 48.270000 38.528000 15.131000 # C
1722 8 1 0.000000 50.279000 37.765000 13.951000 # C
1723 8 1 0.000000 49.208000 37.516000 14.846000 # C
1724 8 1 0.000000 51.279000 36.726000 13.651000 # C
1725 8 1 0.000000 50.893000 35.495000 13.098000 # C
1726 8 1 0.000000 52.641000 37.030000 13.776000 # C
1727 8 1 0.000000 51.863000 34.622000 12.584000 # C
1728 8 1 0.000000 53.601000 36.150000 13.287000 # C
1729 8 1 0.000000 53.224000 34.954000 12.652000 # C
1730 8 3 0.000000 54.184000 34.244000 11.849000 # N
1731 8 1 0.000000 54.312000 34.647000 10.481000 # C
1732 8 1 0.000000 55.554000 34.145000 12.265000 # C
1733 8 1 0.000000 55.686000 34.998000 10.152000 # C
1734 8 4 0.000000 53.332000 34.813000 9.708000 # O
1735 8 1 0.000000 56.453000 34.679000 11.250000 # C
1736 8 4 0.000000 55.908000 33.783000 13.417000 # O
1737 8 1 0.000000 56.099000 35.962000 9.237000 # C
1738 8 1 0.000000 57.702000 35.258000 11.451000 # C
1739 8 1 0.000000 57.303000 36.663000 9.481000 # C
1740 8 1 0.000000 58.135000 36.239000 10.551000 # C
1741 8 1 0.000000 57.514000 38.009000 8.876000 # C
1742 8 1 0.000000 58.806000 38.543000 8.709000 # C
1743 8 1 0.000000 56.406000 38.861000 8.696000 # C
1744 8 1 0.000000 58.982000 39.917000 8.493000 # C
1745 8 1 0.000000 56.583000 40.219000 8.457000 # C
1746 8 1 0.000000 57.872000 40.773000 8.408000 # C
1747 8 3 0.000000 58.043000 42.196000 8.535000 # N
1748 8 1 0.000000 58.410000 42.727000 9.816000 # C
1749 8 1 0.000000 57.038000 43.131000 8.093000 # C
1750 8 1 0.000000 57.538000 43.827000 10.204000 # C
1751 8 4 0.000000 59.326000 42.251000 10.535000 # O
1752 8 1 0.000000 56.704000 44.082000 9.147000 # C
1753 8 4 0.000000 56.422000 43.023000 7.004000 # O
1754 8 1 0.000000 57.255000 44.294000 11.486000 # C
1755 8 1 0.000000 55.566000 44.872000 9.294000 # C
1756 8 1 0.000000 56.084000 45.057000 11.685000 # C
1757 8 1 0.000000 55.263000 45.370000 10.573000 # C
1758 8 1 0.000000 55.640000 45.366000 13.064000 # C
1759 8 1 0.000000 56.553000 45.854000 14.012000 # C
1760 8 1 0.000000 54.327000 45.064000 13.471000 # C
1761 8 1 0.000000 56.162000 46.033000 15.341000 # C
1762 8 1 0.000000 53.943000 45.226000 14.806000 # C
1763 8 1 0.000000 54.859000 45.715000 15.749000 # C
1764 8 3 0.000000 54.468000 45.880000 17.119000 # N
1765 8 1 0.000000 54.855000 46.948000 17.988000 # C
1766 8 1 0.000000 54.031000 44.843000 18.009000 # C
1767 8 1 0.000000 54.625000 46.576000 19.375000 # C
1768 8 4 0.000000 55.304000 48.059000 17.590000 # O
1769 8 1 0.000000 54.121000 45.296000 19.396000 # C
1770 8 4 0.000000 53.670000 43.694000 17.635000 # O
1771 8 1 0.000000 54.855000 47.292000 20.539000 # C
1772 8 1 0.000000 53.821000 44.654000 20.599000 # C
1773 8 1 0.000000 54.553000 46.681000 21.777000 # C
1774 8 1 0.000000 54.031000 45.362000 21.799000 # C
1775 8 1 0.000000 54.770000 47.444000 23.022000 # C
1776 8 1 0.000000 53.748000 47.563000 23.984000 # C
1777 8 1 0.000000 55.955000 48.175000 23.190000 # C
1778 8 1 0.000000 53.871000 48.484000 25.029000 # C
1779 8 1 0.000000 56.077000 49.088000 24.234000 # C
1780 8 1 0.000000 55.017000 49.291000 25.139000 # C
1781 8 3 0.000000 55.003000 50.456000 25.986000 # N
1782 8 1 0.000000 54.075000 51.509000 25.695000 # C
1783 8 1 0.000000 56.193000 51.184000 26.325000 # C
1784 8 1 0.000000 54.732000 52.806000 25.671000 # C
1785 8 4 0.000000 52.873000 51.314000 25.378000 # O
1786 8 1 0.000000 56.040000 52.609000 26.054000 # C
1787 8 4 0.000000 57.261000 50.637000 26.712000 # O
1788 8 1 0.000000 54.358000 53.916000 24.922000 # C
1789 8 1 0.000000 57.034000 53.535000 25.741000 # C
1790 8 1 0.000000 55.352000 54.831000 24.520000 # C
1791 8 1 0.000000 56.685000 54.659000 24.971000 # C
1792 8 1 0.000000 55.059000 55.671000 23.345000 # C
1793 8 1 0.000000 53.921000 56.491000 23.330000 # C
1794 8 1 0.000000 55.694000 55.362000 22.130000 # C
1795 8 1 0.000000 53.341000 56.862000 22.111000 # C
1796 8 1 0.000000 55.099000 55.711000 20.915000 # C
1797 8 1 0.000000 53.867000 56.390000 20.895000 # C
1798 8 3 0.000000 53.033000 56.357000 19.718000 # N
1799 8 1 0.000000 51.733000 55.752000 19.758000 # C
1800 8 1 0.000000 53.493000 56.018000 18.394000 # C
1801 8 1 0.000000 51.464000 54.998000 18.544000 # C
1802 8 4 0.000000 50.962000 55.790000 20.755000 # O
1803 8 1 0.000000 52.529000 55.164000 17.703000 # C
1804 8 4 0.000000 54.595000 56.390000 17.913000 # O
1805 8 1 0.000000 50.485000 54.037000 18.307000 # C
1806 8 1 0.000000 52.657000 54.408000 16.538000 # C
1807 8 1 0.000000 50.591000 53.227000 17.155000 # C
1808 8 1 0.000000 51.671000 53.443000 16.258000 # C
1809 8 1 0.000000 49.663000 52.074000 16.986000 # C
1810 8 1 0.000000 50.144000 50.820000 16.572000 # C
1811 8 1 0.000000 48.316000 52.190000 17.371000 # C
1812 8 1 0.000000 49.315000 49.691000 16.614000 # C
1813 8 1 0.000000 47.497000 51.059000 17.428000 # C
1814 8 1 0.000000 47.994000 49.796000 17.080000 # C
1815 8 3 0.000000 47.195000 48.624000 17.312000 # N
1816 8 1 0.000000 46.618000 48.275000 18.574000 # C
1817 8 1 0.000000 47.220000 47.390000 16.586000 # C
1818 8 1 0.000000 46.289000 46.855000 18.607000 # C
1819 8 4 0.000000 46.470000 49.076000 19.537000 # O
1820 8 1 0.000000 46.643000 46.318000 17.390000 # C
1821 8 4 0.000000 47.691000 47.255000 15.425000 # O
1822 8 1 0.000000 45.828000 46.056000 19.653000 # C
1823 8 1 0.000000 46.506000 44.955000 17.127000 # C
1824 8 1 0.000000 45.706000 44.664000 19.434000 # C
1825 8 1 0.000000 46.025000 44.128000 18.157000 # C
1826 8 1 0.000000 45.359000 43.758000 20.560000 # C
1827 8 1 0.000000 44.501000 42.663000 20.360000 # C
1828 8 1 0.000000 45.959000 43.929000 21.820000 # C
1829 8 1 0.000000 44.296000 41.728000 21.382000 # C
1830 8 1 0.000000 45.762000 42.988000 22.835000 # C
1831 8 1 0.000000 44.955000 41.862000 22.616000 # C
1832 8 3 0.000000 44.929000 40.775000 23.562000 # N
1833 8 1 0.000000 45.324000 39.441000 23.219000 # C
1834 8 1 0.000000 45.232000 40.857000 24.967000 # C
1835 8 1 0.000000 45.872000 38.749000 24.376000 # C
1836 8 4 0.000000 45.294000 38.973000 22.049000 # O
1837 8 1 0.000000 45.817000 39.609000 25.446000 # C
1838 8 4 0.000000 45.031000 41.881000 25.674000 # O
1839 8 1 0.000000 46.563000 37.544000 24.444000 # C
1840 8 1 0.000000 46.424000 39.294000 26.661000 # C
1841 8 1 0.000000 47.226000 37.206000 25.645000 # C
1842 8 1 0.000000 47.133000 38.081000 26.756000 # C
1843 8 1 0.000000 48.129000 36.025000 25.670000 # C
1844 8 1 0.000000 49.427000 36.139000 26.192000 # C
1845 8 1 0.000000 47.751000 34.832000 25.033000 # C
1846 8 1 0.000000 50.350000 35.100000 26.030000 # C
1847 8 1 0.000000 48.675000 33.794000 24.867000 # C
1848 8 1 0.000000 49.991000 33.933000 25.336000 # C
1849 8 3 0.000000 50.990000 32.944000 25.027000 # N
1850 8 1 0.000000 52.278000 33.221000 24.455000 # C
1851 8 1 0.000000 50.776000 31.556000 24.735000 # C
1852 8 1 0.000000 52.831000 32.022000 23.841000 # C
1853 8 4 0.000000 52.822000 34.359000 24.429000 # O
1854 8 4 0.000000 49.761000 30.905000 25.094000 # O
1855 8 1 0.000000 51.914000 31.007000 24.005000 # C
1856 8 1 0.000000 54.020000 31.826000 23.140000 # C
1857 8 1 0.000000 52.138000 29.734000 23.481000 # C
1858 8 1 0.000000 54.268000 30.552000 22.600000 # C
1859 8 1 0.000000 53.329000 29.512000 22.767000 # C
1860 8 2 0.000000 55.185000 30.368000 22.055000 # H
1861 8 1 0.000000 43.466000 47.268000 3.495000 # C
1862 8 1 0.000000 43.848000 49.221000 4.884000 # C
1863 8 1 0.000000 43.513000 48.073000 2.353000 # C
1864 8 1 0.000000 43.900000 50.024000 3.742000 # C
1865 8 1 0.000000 43.738000 49.451000 2.475000 # C
1866 8 2 0.000000 43.785000 50.074000 1.592000 # H
1867 8 2 0.000000 46.321000 44.982000 8.481000 # H
1868 8 2 0.000000 41.957000 47.000000 9.861000 # H
1869 8 2 0.000000 43.335000 45.784000 11.531000 # H
1870 8 2 0.000000 44.050000 43.273000 11.700000 # H
1871 8 2 0.000000 47.587000 45.556000 10.746000 # H
1872 8 2 0.000000 45.368000 41.812000 13.133000 # H
1873 8 2 0.000000 48.898000 44.129000 12.248000 # H
1874 8 2 0.000000 51.178000 39.230000 12.607000 # H
1875 8 2 0.000000 47.439000 38.344000 15.802000 # H
1876 8 2 0.000000 49.102000 36.548000 15.317000 # H
1877 8 2 0.000000 49.844000 35.250000 12.987000 # H
1878 8 2 0.000000 52.954000 37.982000 14.201000 # H
1879 8 2 0.000000 51.555000 33.720000 12.075000 # H
1880 8 2 0.000000 54.639000 36.453000 13.319000 # H
1881 8 2 0.000000 55.410000 36.281000 8.463000 # H
1882 8 2 0.000000 58.260000 35.063000 12.357000 # H
1883 8 2 0.000000 59.042000 36.776000 10.785000 # H
1884 8 2 0.000000 59.683000 37.915000 8.828000 # H
1885 8 2 0.000000 55.395000 38.508000 8.857000 # H
1886 8 2 0.000000 59.985000 40.329000 8.481000 # H
1887 8 2 0.000000 55.706000 40.852000 8.430000 # H
1888 8 2 0.000000 57.856000 43.966000 12.326000 # H
1889 8 2 0.000000 54.883000 45.027000 8.470000 # H
1890 8 2 0.000000 54.354000 45.943000 10.710000 # H
1891 8 2 0.000000 57.568000 46.093000 13.723000 # H
1892 8 2 0.000000 53.607000 44.669000 12.765000 # H
1893 8 2 0.000000 56.888000 46.394000 16.061000 # H
1894 8 2 0.000000 52.935000 44.971000 15.106000 # H
1895 8 2 0.000000 55.235000 48.304000 20.486000 # H
1896 8 2 0.000000 53.439000 43.641000 20.613000 # H
1897 8 2 0.000000 53.798000 44.884000 22.744000 # H
1898 8 2 0.000000 52.826000 46.999000 23.877000 # H
1899 8 2 0.000000 56.767000 48.084000 22.477000 # H
1900 8 2 0.000000 53.041000 48.631000 25.708000 # H
1901 8 2 0.000000 56.971000 49.698000 24.275000 # H
1902 8 2 0.000000 53.364000 53.954000 24.491000 # H
1903 8 2 0.000000 58.075000 53.325000 25.963000 # H
1904 8 2 0.000000 57.468000 55.318000 24.625000 # H
1905 8 2 0.000000 53.414000 56.741000 24.256000 # H
1906 8 2 0.000000 56.564000 54.718000 22.116000 # H
1907 8 2 0.000000 52.408000 57.410000 22.122000 # H
1908 8 2 0.000000 55.545000 55.335000 20.005000 # H
1909 8 2 0.000000 49.720000 53.865000 19.052000 # H
1910 8 2 0.000000 53.524000 54.513000 15.902000 # H
1911 8 2 0.000000 51.774000 52.835000 15.370000 # H
1912 8 2 0.000000 51.180000 50.691000 16.282000 # H
1913 8 2 0.000000 47.907000 53.145000 17.672000 # H
1914 8 2 0.000000 49.726000 48.723000 16.356000 # H
1915 8 2 0.000000 46.477000 51.164000 17.778000 # H
1916 8 2 0.000000 45.603000 46.500000 20.615000 # H
1917 8 2 0.000000 46.796000 44.539000 16.172000 # H
1918 8 2 0.000000 45.965000 43.063000 17.981000 # H
1919 8 2 0.000000 44.008000 42.517000 19.406000 # H
1920 8 2 0.000000 46.639000 44.754000 21.995000 # H
1921 8 2 0.000000 43.655000 40.875000 21.196000 # H
1922 8 2 0.000000 46.305000 43.109000 23.761000 # H
1923 8 2 0.000000 46.669000 36.936000 23.556000 # H
1924 8 2 0.000000 46.397000 39.987000 27.490000 # H
1925 8 2 0.000000 47.640000 37.844000 27.682000 # H
1926 8 2 0.000000 49.755000 37.054000 26.668000 # H
1927 8 2 0.000000 46.757000 34.714000 24.625000 # H
1928 8 2 0.000000 51.354000 35.221000 26.415000 # H
1929 8 2 0.000000 48.373000 32.912000 24.317000 # H
1930 8 2 0.000000 54.726000 32.633000 23.004000 # H
1931 8 2 0.000000 51.413000 28.940000 23.605000 # H
1932 8 2 0.000000 53.530000 28.534000 22.342000 # H
1933 8 2 0.000000 43.289000 46.205000 3.393000 # H
1934 8 2 0.000000 43.980000 49.670000 5.860000 # H
1935 8 2 0.000000 43.387000 47.631000 1.373000 # H
1936 8 2 0.000000 44.074000 51.089000 3.834000 # H
1937 9 3 0.000000 25.114000 54.191000 13.427000 # N
1938 9 1 0.000000 23.751000 53.897000 13.740000 # C
1939 9 1 0.000000 26.187000 54.141000 14.372000 # C
1940 9 1 0.000000 25.742000 53.925000 12.169000 # C
1941 9 1 0.000000 27.452000 53.890000 13.686000 # C
1942 9 4 0.000000 26.041000 54.262000 15.616000 # O
1943 9 1 0.000000 27.183000 53.769000 12.344000 # C
1944 9 4 0.000000 25.122000 53.833000 11.075000 # O
1945 9 1 0.000000 28.749000 53.785000 14.182000 # C
1946 9 1 0.000000 28.193000 53.556000 11.410000 # C
1947 9 1 0.000000 29.805000 53.596000 13.259000 # C
1948 9 1 0.000000 29.516000 53.481000 11.874000 # C
1949 9 1 0.000000 31.204000 53.592000 13.731000 # C
1950 9 1 0.000000 32.141000 54.459000 13.149000 # C
1951 9 1 0.000000 31.600000 52.783000 14.809000 # C
1952 9 1 0.000000 33.433000 54.559000 13.667000 # C
1953 9 1 0.000000 32.904000 52.865000 15.311000 # C
1954 9 1 0.000000 33.827000 53.775000 14.762000 # C
1955 9 3 0.000000 35.109000 53.979000 15.393000 # N
1956 9 1 0.000000 35.275000 54.201000 16.800000 # C
1957 9 1 0.000000 36.238000 54.652000 14.810000 # C
1958 9 1 0.000000 36.459000 55.010000 17.052000 # C
1959 9 4 0.000000 34.463000 53.818000 17.684000 # O
1960 9 1 0.000000 37.038000 55.301000 15.844000 # C
1961 9 4 0.000000 36.512000 54.642000 13.583000 # O
1962 9 1 0.000000 36.931000 55.550000 18.242000 # C
1963 9 1 0.000000 38.118000 56.180000 15.749000 # C
1964 9 1 0.000000 38.029000 56.433000 18.186000 # C
1965 9 1 0.000000 38.614000 56.756000 16.936000 # C
1966 9 1 0.000000 38.541000 57.012000 19.440000 # C
1967 9 1 0.000000 38.567000 58.402000 19.631000 # C
1968 9 1 0.000000 38.860000 56.161000 20.506000 # C
1969 9 1 0.000000 38.814000 58.929000 20.908000 # C
1970 9 1 0.000000 39.127000 56.690000 21.766000 # C
1971 9 1 0.000000 39.070000 58.076000 21.991000 # C
1972 9 3 0.000000 38.994000 58.573000 23.339000 # N
1973 9 1 0.000000 37.690000 58.669000 23.923000 # C
1974 9 1 0.000000 39.752000 57.956000 24.389000 # C
1975 9 1 0.000000 37.610000 57.936000 25.179000 # C
1976 9 4 0.000000 36.705000 59.200000 23.346000 # O
1977 9 1 0.000000 38.884000 57.505000 25.470000 # C
1978 9 4 0.000000 40.982000 57.708000 24.308000 # O
1979 9 1 0.000000 36.491000 57.283000 25.686000 # C
1980 9 1 0.000000 39.105000 56.441000 26.340000 # C
1981 9 1 0.000000 36.677000 56.119000 26.469000 # C
1982 9 1 0.000000 37.996000 55.760000 26.856000 # C
1983 9 1 0.000000 35.581000 55.115000 26.578000 # C
1984 9 1 0.000000 35.527000 54.203000 27.650000 # C
1985 9 1 0.000000 34.728000 54.909000 25.476000 # C
1986 9 1 0.000000 34.733000 53.051000 27.560000 # C
1987 9 1 0.000000 33.923000 53.777000 25.400000 # C
1988 9 1 0.000000 33.957000 52.808000 26.415000 # C
1989 9 3 0.000000 33.425000 51.494000 26.165000 # N
1990 9 1 0.000000 34.339000 50.442000 25.823000 # C
1991 9 1 0.000000 32.340000 51.269000 25.242000 # C
1992 9 1 0.000000 33.905000 49.729000 24.631000 # C
1993 9 4 0.000000 35.411000 50.218000 26.442000 # O
1994 9 1 0.000000 32.678000 50.227000 24.279000 # C
1995 9 4 0.000000 31.319000 51.996000 25.183000 # O
1996 9 1 0.000000 34.678000 48.993000 23.735000 # C
1997 9 1 0.000000 32.121000 49.968000 23.028000 # C
1998 9 1 0.000000 34.168000 48.751000 22.441000 # C
1999 9 1 0.000000 32.871000 49.215000 22.109000 # C
2000 9 1 0.000000 35.056000 48.180000 21.403000 # C
2001 9 1 0.000000 35.856000 47.062000 21.688000 # C
2002 9 1 0.000000 35.194000 48.818000 20.156000 # C
2003 9 1 0.000000 36.778000 46.596000 20.748000 # C
2004 9 1 0.000000 36.131000 48.362000 19.224000 # C
2005 9 1 0.000000 36.928000 47.244000 19.514000 # C
2006 9 3 0.000000 37.891000 46.774000 18.561000 # N
2007 9 1 0.000000 38.207000 45.409000 18.278000 # C
2008 9 1 0.000000 39.017000 47.508000 18.060000 # C
2009 9 1 0.000000 39.485000 45.321000 17.589000 # C
2010 9 4 0.000000 37.459000 44.433000 18.567000 # O
2011 9 1 0.000000 39.983000 46.596000 17.451000 # C
2012 9 4 0.000000 39.161000 48.756000 18.179000 # O
2013 9 1 0.000000 40.176000 44.211000 17.131000 # C
2014 9 1 0.000000 41.219000 46.829000 16.842000 # C
2015 9 1 0.000000 41.425000 44.407000 16.500000 # C
2016 9 1 0.000000 41.938000 45.721000 16.354000 # C
2017 9 1 0.000000 42.157000 43.232000 15.985000 # C
2018 9 1 0.000000 42.634000 43.202000 14.660000 # C
2019 9 1 0.000000 42.260000 42.078000 16.776000 # C
2020 9 1 0.000000 43.098000 42.004000 14.109000 # C
2021 9 1 0.000000 42.727000 40.888000 16.226000 # C
2022 9 1 0.000000 43.106000 40.822000 14.871000 # C
2023 9 3 0.000000 43.252000 39.544000 14.222000 # N
2024 9 1 0.000000 42.257000 39.134000 13.274000 # C
2025 9 1 0.000000 43.500000 38.330000 14.946000 # C
2026 9 1 0.000000 41.788000 37.785000 13.544000 # C
2027 9 4 0.000000 41.768000 39.897000 12.401000 # O
2028 9 1 0.000000 42.549000 37.287000 14.578000 # C
2029 9 4 0.000000 44.369000 38.222000 15.854000 # O
2030 9 1 0.000000 40.530000 37.268000 13.259000 # C
2031 9 1 0.000000 42.106000 36.217000 15.354000 # C
2032 9 1 0.000000 40.017000 36.238000 14.074000 # C
2033 9 1 0.000000 40.830000 35.685000 15.095000 # C
2034 9 1 0.000000 38.553000 36.067000 14.103000 # C
2035 9 1 0.000000 37.847000 35.840000 12.913000 # C
2036 9 1 0.000000 37.853000 36.504000 15.240000 # C
2037 9 1 0.000000 36.495000 36.196000 12.822000 # C
2038 9 1 0.000000 36.513000 36.882000 15.140000 # C
2039 9 1 0.000000 35.844000 36.815000 13.904000 # C
2040 9 3 0.000000 34.655000 37.598000 13.673000 # N
2041 9 1 0.000000 34.635000 38.618000 12.664000 # C
2042 9 1 0.000000 33.832000 38.169000 14.710000 # C
2043 9 1 0.000000 33.910000 39.795000 13.118000 # C
2044 9 4 0.000000 35.246000 38.542000 11.564000 # O
2045 9 1 0.000000 33.409000 39.524000 14.361000 # C
2046 9 4 0.000000 33.542000 37.582000 15.785000 # O
2047 9 1 0.000000 33.915000 41.084000 12.593000 # C
2048 9 1 0.000000 32.831000 40.525000 15.142000 # C
2049 9 1 0.000000 33.368000 42.134000 13.363000 # C
2050 9 1 0.000000 32.800000 41.836000 14.630000 # C
2051 9 1 0.000000 33.534000 43.540000 12.901000 # C
2052 9 1 0.000000 33.917000 44.551000 13.800000 # C
2053 9 1 0.000000 33.445000 43.849000 11.532000 # C
2054 9 1 0.000000 34.276000 45.822000 13.331000 # C
2055 9 1 0.000000 33.818000 45.112000 11.066000 # C
2056 9 1 0.000000 34.265000 46.100000 11.954000 # C
2057 9 3 0.000000 34.811000 47.328000 11.442000 # N
2058 9 1 0.000000 35.881000 47.406000 10.496000 # C
2059 9 1 0.000000 34.803000 48.617000 12.067000 # C
2060 9 1 0.000000 36.504000 48.723000 10.540000 # C
2061 9 4 0.000000 36.263000 46.447000 9.771000 # O
2062 9 1 0.000000 35.837000 49.467000 11.488000 # C
2063 9 4 0.000000 34.020000 48.954000 12.996000 # O
2064 9 1 0.000000 37.640000 49.210000 9.895000 # C
2065 9 1 0.000000 36.235000 50.764000 11.809000 # C
2066 9 1 0.000000 38.093000 50.510000 10.218000 # C
2067 9 1 0.000000 37.367000 51.288000 11.160000 # C
2068 9 1 0.000000 39.378000 51.014000 9.665000 # C
2069 9 1 0.000000 39.509000 52.354000 9.263000 # C
2070 9 1 0.000000 40.508000 50.178000 9.624000 # C
2071 9 1 0.000000 40.759000 52.861000 8.885000 # C
2072 9 1 0.000000 41.757000 50.689000 9.257000 # C
2073 9 1 0.000000 41.900000 52.042000 8.916000 # C
2074 9 3 0.000000 43.207000 52.631000 8.763000 # N
2075 9 1 0.000000 43.665000 53.719000 9.577000 # C
2076 9 1 0.000000 44.423000 51.940000 8.423000 # C
2077 9 1 0.000000 45.109000 53.669000 9.743000 # C
2078 9 4 0.000000 42.903000 54.542000 10.151000 # O
2079 9 1 0.000000 45.578000 52.585000 9.040000 # C
2080 9 4 0.000000 44.469000 50.906000 7.703000 # O
2081 9 1 0.000000 45.928000 54.382000 10.613000 # C
2082 9 1 0.000000 46.905000 52.173000 9.142000 # C
2083 9 1 0.000000 47.270000 53.971000 10.775000 # C
2084 9 1 0.000000 47.755000 52.875000 10.018000 # C
2085 9 1 0.000000 48.097000 54.594000 11.843000 # C
2086 9 1 0.000000 48.822000 53.788000 12.735000 # C
2087 9 1 0.000000 48.037000 55.978000 12.068000 # C
2088 9 1 0.000000 49.430000 54.349000 13.863000 # C
2089 9 1 0.000000 48.641000 56.539000 13.199000 # C
2090 9 1 0.000000 49.314000 55.724000 14.123000 # C
2091 9 3 0.000000 49.795000 56.264000 15.367000 # N
2092 9 1 0.000000 49.525000 55.714000 16.666000 # C
2093 9 1 0.000000 50.160000 57.625000 15.639000 # C
2094 9 1 0.000000 49.733000 56.721000 17.698000 # C
2095 9 4 0.000000 49.100000 54.546000 16.876000 # O
2096 9 4 0.000000 50.505000 58.455000 14.758000 # O
2097 9 1 0.000000 50.114000 57.889000 17.073000 # C
2098 9 1 0.000000 49.555000 56.657000 19.079000 # C
2099 9 1 0.000000 50.347000 59.058000 17.798000 # C
2100 9 1 0.000000 49.781000 57.822000 19.831000 # C
2101 9 1 0.000000 50.171000 59.018000 19.192000 # C
2102 9 2 0.000000 49.655000 57.801000 20.906000 # H
2103 9 1 0.000000 22.919000 54.897000 14.263000 # C
2104 9 1 0.000000 23.244000 52.602000 13.544000 # C
2105 9 1 0.000000 21.589000 54.605000 14.585000 # C
2106 9 1 0.000000 21.917000 52.310000 13.871000 # C
2107 9 1 0.000000 21.090000 53.310000 14.396000 # C
2108 9 2 0.000000 20.064000 53.081000 14.653000 # H
2109 9 2 0.000000 28.941000 53.895000 15.243000 # H
2110 9 2 0.000000 27.973000 53.464000 10.354000 # H
2111 9 2 0.000000 30.317000 53.338000 11.161000 # H
2112 9 2 0.000000 31.854000 55.105000 12.328000 # H
2113 9 2 0.000000 30.895000 52.094000 15.269000 # H
2114 9 2 0.000000 34.102000 55.295000 13.241000 # H
2115 9 2 0.000000 33.184000 52.233000 16.138000 # H
2116 9 2 0.000000 36.439000 55.314000 19.177000 # H
2117 9 2 0.000000 38.548000 56.431000 14.787000 # H
2118 9 2 0.000000 39.444000 57.446000 16.882000 # H
2119 9 2 0.000000 38.314000 59.071000 18.819000 # H
2120 9 2 0.000000 38.841000 55.081000 20.372000 # H
2121 9 2 0.000000 38.739000 59.995000 21.069000 # H
2122 9 2 0.000000 39.283000 56.004000 22.588000 # H
2123 9 2 0.000000 35.508000 57.567000 25.328000 # H
2124 9 2 0.000000 40.104000 56.058000 26.499000 # H
2125 9 2 0.000000 38.173000 54.858000 27.421000 # H
2126 9 2 0.000000 36.160000 54.337000 28.521000 # H
2127 9 2 0.000000 34.764000 55.556000 24.609000 # H
2128 9 2 0.000000 34.790000 52.304000 28.343000 # H
2129 9 2 0.000000 33.364000 53.608000 24.489000 # H
2130 9 2 0.000000 35.697000 48.728000 23.991000 # H
2131 9 2 0.000000 31.176000 50.407000 22.736000 # H
2132 9 2 0.000000 32.470000 49.050000 21.116000 # H
2133 9 2 0.000000 35.768000 46.554000 22.640000 # H
2134 9 2 0.000000 34.602000 49.693000 19.915000 # H
2135 9 2 0.000000 37.400000 45.742000 20.997000 # H
2136 9 2 0.000000 36.238000 48.876000 18.278000 # H
2137 9 2 0.000000 39.745000 43.223000 17.240000 # H
2138 9 2 0.000000 41.615000 47.833000 16.749000 # H
2139 9 2 0.000000 42.897000 45.881000 15.873000 # H
2140 9 2 0.000000 42.571000 44.087000 14.035000 # H
2141 9 2 0.000000 41.922000 42.082000 17.806000 # H
2142 9 2 0.000000 43.376000 41.973000 13.063000 # H
2143 9 2 0.000000 42.705000 39.999000 16.843000 # H
2144 9 2 0.000000 39.888000 37.789000 12.558000 # H
2145 9 2 0.000000 42.668000 35.894000 16.224000 # H
2146 9 2 0.000000 40.431000 34.937000 15.766000 # H
2147 9 2 0.000000 38.367000 35.505000 12.022000 # H
2148 9 2 0.000000 38.381000 36.701000 16.165000 # H
2149 9 2 0.000000 35.995000 36.107000 11.867000 # H
2150 9 2 0.000000 36.050000 37.344000 16.002000 # H
2151 9 2 0.000000 34.418000 41.272000 11.655000 # H
2152 9 2 0.000000 32.479000 40.313000 16.141000 # H
2153 9 2 0.000000 32.376000 42.623000 15.238000 # H
2154 9 2 0.000000 34.011000 44.345000 14.859000 # H
2155 9 2 0.000000 33.130000 43.103000 10.816000 # H
2156 9 2 0.000000 34.634000 46.563000 14.034000 # H
2157 9 2 0.000000 33.791000 45.311000 10.002000 # H
2158 9 2 0.000000 38.172000 48.584000 9.189000 # H
2159 9 2 0.000000 35.713000 51.338000 12.562000 # H
2160 9 2 0.000000 37.715000 52.273000 11.440000 # H
2161 9 2 0.000000 38.651000 53.015000 9.264000 # H
2162 9 2 0.000000 40.438000 49.146000 9.946000 # H
2163 9 2 0.000000 40.843000 53.904000 8.609000 # H
2164 9 2 0.000000 42.617000 50.038000 9.318000 # H
2165 9 2 0.000000 45.505000 55.167000 11.223000 # H
2166 9 2 0.000000 47.259000 51.304000 8.604000 # H
2167 9 2 0.000000 48.777000 52.541000 10.134000 # H
2168 9 2 0.000000 48.867000 52.714000 12.601000 # H
2169 9 2 0.000000 47.490000 56.624000 11.396000 # H
2170 9 2 0.000000 49.959000 53.704000 14.554000 # H
2171 9 2 0.000000 48.525000 57.600000 13.378000 # H
2172 9 2 0.000000 49.241000 55.740000 19.557000 # H
2173 9 2 0.000000 50.639000 59.975000 17.304000 # H
2174 9 2 0.000000 50.338000 59.913000 19.783000 # H
2175 9 2 0.000000 23.297000 55.900000 14.410000 # H
2176 9 2 0.000000 23.879000 51.823000 13.144000 # H
2177 9 2 0.000000 20.949000 55.378000 14.990000 # H
2178 9 2 0.000000 21.529000 51.310000 13.725000 # H
2179 10 3 0.000000 14.608000 31.457000 40.495000 # N
2180 10 1 0.000000 14.045000 32.438000 41.367000 # C
2181 10 1 0.000000 16.010000 31.200000 40.369000 # C
2182 10 1 0.000000 13.991000 30.212000 40.154000 # C
2183 10 1 0.000000 16.234000 29.829000 39.918000 # C
2184 10 4 0.000000 16.911000 32.035000 40.646000 # O
2185 10 1 0.000000 15.004000 29.230000 39.777000 # C
2186 10 4 0.000000 12.749000 30.006000 40.190000 # O
2187 10 1 0.000000 17.414000 29.146000 39.636000 # C
2188 10 1 0.000000 14.875000 27.919000 39.326000 # C
2189 10 1 0.000000 17.320000 27.821000 39.149000 # C
2190 10 1 0.000000 16.044000 27.215000 39.000000 # C
2191 10 1 0.000000 18.540000 27.102000 38.732000 # C
2192 10 1 0.000000 18.616000 26.539000 37.448000 # C
2193 10 1 0.000000 19.662000 27.032000 39.575000 # C
2194 10 1 0.000000 19.806000 25.968000 36.993000 # C
2195 10 1 0.000000 20.846000 26.436000 39.127000 # C
2196 10 1 0.000000 20.938000 25.921000 37.820000 # C
2197 10 3 0.000000 22.208000 25.467000 37.306000 # N
2198 10 1 0.000000 23.424000 26.220000 37.415000 # C
2199 10 1 0.000000 22.406000 24.680000 36.119000 # C
2200 10 1 0.000000 24.316000 25.913000 36.306000 # C
2201 10 4 0.000000 23.650000 27.086000 38.302000 # O
2202 10 1 0.000000 23.693000 24.989000 35.506000 # C
2203 10 4 0.000000 21.592000 23.818000 35.699000 # O
2204 10 1 0.000000 25.534000 26.483000 35.959000 # C
2205 10 1 0.000000 24.243000 24.598000 34.285000 # C
2206 10 1 0.000000 26.126000 26.103000 34.737000 # C
2207 10 1 0.000000 25.472000 25.168000 33.895000 # C
2208 10 1 0.000000 27.417000 26.699000 34.356000 # C
2209 10 1 0.000000 27.546000 27.437000 33.169000 # C
2210 10 1 0.000000 28.484000 26.658000 35.263000 # C
2211 10 1 0.000000 28.697000 28.207000 32.943000 # C
2212 10 1 0.000000 29.634000 27.404000 35.023000 # C
2213 10 1 0.000000 29.740000 28.216000 33.880000 # C
2214 10 3 0.000000 30.754000 29.235000 33.826000 # N
2215 10 1 0.000000 30.431000 30.505000 34.402000 # C
2216 10 1 0.000000 32.066000 28.989000 34.352000 # C
2217 10 1 0.000000 31.405000 30.900000 35.411000 # C
2218 10 4 0.000000 29.361000 31.127000 34.166000 # O
2219 10 1 0.000000 32.417000 29.969000 35.372000 # C
2220 10 4 0.000000 32.750000 27.972000 34.069000 # O
2221 10 1 0.000000 31.153000 31.649000 36.557000 # C
2222 10 1 0.000000 33.274000 29.789000 36.453000 # C
2223 10 1 0.000000 31.923000 31.398000 37.717000 # C
2224 10 1 0.000000 33.037000 30.522000 37.622000 # C
2225 10 1 0.000000 31.378000 31.750000 39.059000 # C
2226 10 1 0.000000 32.226000 31.943000 40.166000 # C
2227 10 1 0.000000 29.990000 31.648000 39.283000 # C
2228 10 1 0.000000 31.708000 31.906000 41.469000 # C
2229 10 1 0.000000 29.477000 31.637000 40.576000 # C
2230 10 1 0.000000 30.334000 31.710000 41.685000 # C
2231 10 3 0.000000 29.853000 31.329000 42.986000 # N
2232 10 1 0.000000 30.161000 30.014000 43.469000 # C
2233 10 1 0.000000 28.469000 31.477000 43.365000 # C
2234 10 1 0.000000 28.969000 29.334000 43.954000 # C
2235 10 4 0.000000 31.307000 29.498000 43.412000 # O
2236 10 1 0.000000 27.934000 30.230000 43.900000 # C
2237 10 4 0.000000 27.784000 32.497000 43.105000 # O
2238 10 1 0.000000 28.742000 27.963000 44.068000 # C
2239 10 1 0.000000 26.609000 29.817000 44.017000 # C
2240 10 1 0.000000 27.410000 27.501000 44.139000 # C
2241 10 1 0.000000 26.350000 28.442000 44.148000 # C
2242 10 1 0.000000 27.134000 26.051000 44.026000 # C
2243 10 1 0.000000 27.876000 25.125000 44.776000 # C
2244 10 1 0.000000 26.205000 25.577000 43.080000 # C
2245 10 1 0.000000 27.696000 23.753000 44.581000 # C
2246 10 1 0.000000 26.040000 24.203000 42.874000 # C
2247 10 1 0.000000 26.784000 23.283000 43.626000 # C
2248 10 3 0.000000 26.618000 21.874000 43.415000 # N
2249 10 1 0.000000 26.622000 20.860000 44.423000 # C
2250 10 1 0.000000 26.877000 21.162000 42.198000 # C
2251 10 1 0.000000 26.846000 19.554000 43.822000 # C
2252 10 4 0.000000 26.430000 21.080000 45.652000 # O
2253 10 1 0.000000 27.000000 19.730000 42.466000 # C
2254 10 4 0.000000 27.022000 21.711000 41.072000 # O
2255 10 1 0.000000 26.929000 18.304000 44.413000 # C
2256 10 1 0.000000 27.253000 18.649000 41.619000 # C
2257 10 1 0.000000 27.174000 17.183000 43.588000 # C
2258 10 1 0.000000 27.330000 17.363000 42.189000 # C
2259 10 1 0.000000 27.239000 15.843000 44.204000 # C
2260 10 1 0.000000 26.471000 14.777000 43.697000 # C
2261 10 1 0.000000 27.964000 15.660000 45.390000 # C
2262 10 1 0.000000 26.345000 13.591000 44.429000 # C
2263 10 1 0.000000 27.841000 14.477000 46.115000 # C
2264 10 1 0.000000 26.992000 13.446000 45.670000 # C
2265 10 3 0.000000 26.599000 12.393000 46.570000 # N
2266 10 1 0.000000 25.255000 12.378000 47.070000 # C
2267 10 1 0.000000 27.361000 12.044000 47.736000 # C
2268 10 1 0.000000 25.227000 12.218000 48.515000 # C
2269 10 4 0.000000 24.242000 12.602000 46.358000 # O
2270 10 1 0.000000 26.524000 12.017000 48.931000 # C
2271 10 4 0.000000 28.611000 11.882000 47.732000 # O
2272 10 1 0.000000 24.255000 12.697000 49.387000 # C
2273 10 1 0.000000 26.906000 12.246000 50.252000 # C
2274 10 1 0.000000 24.626000 13.014000 50.709000 # C
2275 10 1 0.000000 25.945000 12.744000 51.150000 # C
2276 10 1 0.000000 23.770000 13.969000 51.438000 # C
2277 10 1 0.000000 22.402000 13.708000 51.601000 # C
2278 10 1 0.000000 24.243000 15.279000 51.624000 # C
2279 10 1 0.000000 21.505000 14.766000 51.789000 # C
2280 10 1 0.000000 23.344000 16.336000 51.786000 # C
2281 10 1 0.000000 21.957000 16.098000 51.781000 # C
2282 10 3 0.000000 21.033000 17.168000 51.492000 # N
2283 10 1 0.000000 20.187000 17.111000 50.334000 # C
2284 10 1 0.000000 21.347000 18.572000 51.581000 # C
2285 10 1 0.000000 20.079000 18.414000 49.697000 # C
2286 10 4 0.000000 19.682000 16.052000 49.874000 # O
2287 10 1 0.000000 20.775000 19.312000 50.457000 # C
2288 10 4 0.000000 22.047000 19.083000 52.494000 # O
2289 10 1 0.000000 19.626000 18.730000 48.419000 # C
2290 10 1 0.000000 21.021000 20.608000 50.004000 # C
2291 10 1 0.000000 19.880000 20.022000 47.907000 # C
2292 10 1 0.000000 20.556000 20.966000 48.725000 # C
2293 10 1 0.000000 19.572000 20.314000 46.479000 # C
2294 10 1 0.000000 20.491000 21.010000 45.675000 # C
2295 10 1 0.000000 18.418000 19.778000 45.882000 # C
2296 10 1 0.000000 20.296000 21.102000 44.290000 # C
2297 10 1 0.000000 18.235000 19.857000 44.499000 # C
2298 10 1 0.000000 19.184000 20.491000 43.687000 # C
2299 10 3 0.000000 19.070000 20.409000 42.256000 # N
2300 10 1 0.000000 18.959000 19.186000 41.521000 # C
2301 10 1 0.000000 19.526000 21.359000 41.285000 # C
2302 10 1 0.000000 19.332000 19.394000 40.127000 # C
2303 10 4 0.000000 18.638000 18.077000 42.028000 # O
2304 10 1 0.000000 19.664000 20.722000 39.980000 # C
2305 10 4 0.000000 19.785000 22.566000 41.536000 # O
2306 10 1 0.000000 19.488000 18.481000 39.085000 # C
2307 10 1 0.000000 20.122000 21.228000 38.764000 # C
2308 10 1 0.000000 19.981000 18.951000 37.846000 # C
2309 10 1 0.000000 20.272000 20.333000 37.690000 # C
2310 10 1 0.000000 20.301000 17.992000 36.756000 # C
2311 10 1 0.000000 20.021000 18.310000 35.417000 # C
2312 10 1 0.000000 20.974000 16.791000 37.043000 # C
2313 10 1 0.000000 20.459000 17.473000 34.383000 # C
2314 10 1 0.000000 21.420000 15.961000 36.009000 # C
2315 10 1 0.000000 21.195000 16.311000 34.669000 # C
2316 10 3 0.000000 21.845000 15.594000 33.600000 # N
2317 10 1 0.000000 22.738000 16.227000 32.676000 # C
2318 10 1 0.000000 22.327000 14.238000 33.648000 # C
2319 10 1 0.000000 23.743000 15.288000 32.201000 # C
2320 10 4 0.000000 22.714000 17.456000 32.397000 # O
2321 10 1 0.000000 23.496000 14.072000 32.790000 # C
2322 10 4 0.000000 21.810000 13.330000 34.353000 # O
2323 10 1 0.000000 24.910000 15.526000 31.482000 # C
2324 10 1 0.000000 24.389000 13.010000 32.664000 # C
2325 10 1 0.000000 25.860000 14.487000 31.364000 # C
2326 10 1 0.000000 25.580000 13.224000 31.944000 # C
2327 10 1 0.000000 27.192000 14.784000 30.773000 # C
2328 10 1 0.000000 28.364000 14.385000 31.437000 # C
2329 10 1 0.000000 27.296000 15.597000 29.633000 # C
2330 10 1 0.000000 29.614000 14.839000 31.001000 # C
2331 10 1 0.000000 28.546000 16.054000 29.201000 # C
2332 10 1 0.000000 29.711000 15.705000 29.900000 # C
2333 10 3 0.000000 30.978000 16.300000 29.563000 # N
2334 10 1 0.000000 31.866000 16.936000 30.495000 # C
2335 10 1 0.000000 31.376000 16.831000 28.291000 # C
2336 10 1 0.000000 32.785000 17.824000 29.796000 # C
2337 10 4 0.000000 31.811000 16.798000 31.747000 # O
2338 10 4 0.000000 30.858000 16.502000 27.192000 # O
2339 10 1 0.000000 32.484000 17.766000 28.453000 # C
2340 10 1 0.000000 33.781000 18.668000 30.285000 # C
2341 10 1 0.000000 33.168000 18.546000 27.521000 # C
2342 10 1 0.000000 34.483000 19.467000 29.366000 # C
2343 10 1 0.000000 34.175000 19.408000 27.991000 # C
2344 10 2 0.000000 35.265000 20.128000 29.716000 # H
2345 10 1 0.000000 13.931000 33.771000 40.946000 # C
2346 10 1 0.000000 13.620000 32.078000 42.656000 # C
2347 10 1 0.000000 13.394000 34.735000 41.806000 # C
2348 10 1 0.000000 13.088000 33.043000 43.517000 # C
2349 10 1 0.000000 12.979000 34.373000 43.094000 # C
2350 10 2 0.000000 12.572000 35.119000 43.763000 # H
2351 10 2 0.000000 18.373000 29.641000 39.743000 # H
2352 10 2 0.000000 13.903000 27.456000 39.216000 # H
2353 10 2 0.000000 15.964000 26.203000 38.626000 # H
2354 10 2 0.000000 17.770000 26.596000 36.774000 # H
2355 10 2 0.000000 19.623000 27.450000 40.578000 # H
2356 10 2 0.000000 19.848000 25.616000 35.971000 # H
2357 10 2 0.000000 21.692000 26.394000 39.793000 # H
2358 10 2 0.000000 25.989000 27.224000 36.604000 # H
2359 10 2 0.000000 23.728000 23.893000 33.643000 # H
2360 10 2 0.000000 25.910000 24.884000 32.949000 # H
2361 10 2 0.000000 26.727000 27.485000 32.463000 # H
2362 10 2 0.000000 28.397000 26.092000 36.188000 # H
2363 10 2 0.000000 28.750000 28.846000 32.074000 # H
2364 10 2 0.000000 30.403000 27.421000 35.784000 # H
2365 10 2 0.000000 30.267000 32.272000 36.594000 # H
2366 10 2 0.000000 34.014000 29.000000 36.444000 # H
2367 10 2 0.000000 33.620000 30.283000 38.498000 # H
2368 10 2 0.000000 33.298000 32.038000 40.031000 # H
2369 10 2 0.000000 29.303000 31.456000 38.470000 # H
2370 10 2 0.000000 32.389000 31.942000 42.312000 # H
2371 10 2 0.000000 28.419000 31.451000 40.703000 # H
2372 10 2 0.000000 29.569000 27.269000 43.972000 # H
2373 10 2 0.000000 25.793000 30.522000 43.921000 # H
2374 10 2 0.000000 25.321000 28.104000 44.189000 # H
2375 10 2 0.000000 28.596000 25.465000 45.508000 # H
2376 10 2 0.000000 25.631000 26.268000 42.475000 # H
2377 10 2 0.000000 28.293000 23.055000 45.158000 # H
2378 10 2 0.000000 25.336000 23.857000 42.129000 # H
2379 10 2 0.000000 26.785000 18.200000 45.481000 # H
2380 10 2 0.000000 27.388000 18.792000 40.555000 # H
2381 10 2 0.000000 27.519000 16.509000 41.548000 # H
2382 10 2 0.000000 25.909000 14.896000 42.776000 # H
2383 10 2 0.000000 28.581000 16.456000 45.790000 # H
2384 10 2 0.000000 25.680000 12.815000 44.073000 # H
2385 10 2 0.000000 28.346000 14.411000 47.071000 # H
2386 10 2 0.000000 23.295000 13.008000 48.992000 # H
2387 10 2 0.000000 27.947000 12.176000 50.546000 # H
2388 10 2 0.000000 26.261000 13.035000 52.142000 # H
2389 10 2 0.000000 22.015000 12.704000 51.460000 # H
2390 10 2 0.000000 25.292000 15.506000 51.488000 # H
2391 10 2 0.000000 20.445000 14.554000 51.812000 # H
2392 10 2 0.000000 23.738000 17.342000 51.785000 # H
2393 10 2 0.000000 19.176000 17.958000 47.810000 # H
2394 10 2 0.000000 21.611000 21.297000 50.591000 # H
2395 10 2 0.000000 20.762000 21.961000 48.355000 # H
2396 10 2 0.000000 21.397000 21.424000 46.098000 # H
2397 10 2 0.000000 17.678000 19.258000 46.476000 # H
2398 10 2 0.000000 21.051000 21.583000 43.680000 # H
2399 10 2 0.000000 17.365000 19.390000 44.054000 # H
2400 10 2 0.000000 19.264000 17.433000 39.245000 # H
2401 10 2 0.000000 20.392000 22.270000 38.659000 # H
2402 10 2 0.000000 20.677000 20.705000 36.759000 # H
2403 10 2 0.000000 19.486000 19.218000 35.167000 # H
2404 10 2 0.000000 21.218000 16.531000 38.066000 # H
2405 10 2 0.000000 20.260000 17.753000 33.357000 # H
2406 10 2 0.000000 22.005000 15.091000 36.265000 # H
2407 10 2 0.000000 25.119000 16.520000 31.113000 # H
2408 10 2 0.000000 24.199000 12.065000 33.152000 # H
2409 10 2 0.000000 26.299000 12.419000 31.871000 # H
2410 10 2 0.000000 28.315000 13.778000 32.331000 # H
2411 10 2 0.000000 26.411000 15.915000 29.099000 # H
2412 10 2 0.000000 30.502000 14.543000 31.545000 # H
2413 10 2 0.000000 28.588000 16.730000 28.356000 # H
2414 10 2 0.000000 33.999000 18.717000 31.343000 # H
2415 10 2 0.000000 32.924000 18.504000 26.468000 # H
2416 10 2 0.000000 34.721000 20.032000 27.291000 # H
2417 10 2 0.000000 14.247000 34.058000 39.952000 # H
2418 10 2 0.000000 13.706000 31.052000 42.992000 # H
2419 10 2 0.000000 13.309000 35.764000 41.480000 # H
2420 10 2 0.000000 12.767000 32.765000 44.513000 # H

Bonds

1 3 1 2
2 3 1 3
3 3 1 4
4 1 2 167
5 1 2 168
6 1 3 5
7 4 3 6
8 1 4 7
9 4 4 8
10 1 5 7
11 1 5 9
12 1 7 10
13 1 9 11
14 2 9 173
15 1 10 12
16 2 10 174
17 1 11 12
18 1 11 13
19 2 12 175
20 1 13 14
21 1 13 15
22 1 14 16
23 2 14 176
24 1 15 17
25 2 15 177
26 1 16 18
27 2 16 178
28 1 17 18
29 2 17 179
30 3 18 19
31 3 19 20
32 3 19 21
33 1 20 22
34 4 20 23
35 1 21 24
36 4 21 25
37 1 22 24
38 1 22 26
39 1 24 27
40 1 26 28
41 2 26 180
42 1 27 29
43 2 27 181
44 1 28 29
45 1 28 30
46 2 29 182
47 1 30 31
48 1 30 32
49 1 31 33
50 2 31 183
51 1 32 34
52 2 32 184
53 1 33 35
54 2 33 185
55 1 34 35
56 2 34 186
57 3 35 36
58 3 36 37
59 3 36 38
60 1 37 39
61 4 37 40
62 1 38 41
63 4 38 42
64 1 39 41
65 1 39 43
66 1 41 44
67 1 43 45
68 2 43 187
69 1 44 46
70 2 44 188
71 1 45 46
72 1 45 47
73 2 46 189
74 1 47 48
75 1 47 49
76 1 48 50
77 2 48 190
78 1 49 51
79 2 49 191
80 1 50 52
81 2 50 192
82 1 51 52
83 2 51 193
84 3 52 53
85 3 53 54
86 3 53 55
87 1 54 56
88 4 54 57
89 1 55 58
90 4 55 59
91 1 56 58
92 1 56 60
93 1 58 61
94 1 60 62
95 2 60 194
96 1 61 63
97 2 61 195
98 1 62 63
99 1 62 64
100 2 63 196
101 1 64 65
102 1 64 66
103 1 65 67
104 2 65 197
105 1 66 68
106 2 66 198
107 1 67 69
108 2 67 199
109 1 68 69
110 2 68 200
111 3 69 70
112 3 70 71
113 3 70 72
114 1 71 73
115 4 71 74
116 1 72 75
117 4 72 76
118 1 73 75
119 1 73 77
120 1 75 78
121 1 77 79
122 2 77 201
123 1 78 80
124 2 78 202
125 1 79 80
126 1 79 81
127 2 80 203
128 1 81 82
129 1 81 83
130 1 82 84
131 2 82 204
132 1 83 85
133 2 83 205
134 1 84 86
135 2 84 206
136 1 85 86
137 2 85 207
138 3 86 87
139 3 87 88
140 3 87 89
141 1 88 90
142 4 88 91
143 1 89 92
144 4 89 93
145 1 90 92
146 1 90 94
147 1 92 95
148 1 94 96
149 2 94 208
150 1 95 97
151 2 95 209
152 1 96 97
153 1 96 98
154 2 97 210
155 1 98 99
156 1 98 100
157 1 99 101
158 2 99 211
159 1 100 102
160 2 100 212
161 1 101 103
162 2 101 213
163 1 102 103
164 2 102 214
165 3 103 104
166 3 104 105
167 3 104 106
168 1 105 107
169 4 105 108
170 1 106 109
171 4 106 110
172 1 107 109
173 1 107 111
174 1 109 112
175 1 111 113
176 2 111 215
177 1 112 114
178 2 112 216
179 1 113 114
180 1 113 115
181 2 114 217
182 1 115 116
183 1 115 117
184 1 116 118
185 2 116 218
186 1 117 119
187 2 117 219
188 1 118 120
189 2 118 220
190 1 119 120
191 2 119 221
192 3 120 121
193 3 121 122
194 3 121 123
195 1 122 124
196 4 122 125
197 1 123 126
198 4 123 127
199 1 124 126
200 1 124 128
201 1 126 129
202 1 128 130
203 2 128 222
204 1 129 131
205 2 129 223
206 1 130 131
207 1 130 132
208 2 131 224
209 1 132 133
210 1 132 134
211 1 133 135
212 2 133 225
213 1 134 136
214 2 134 226
215 1 135 137
216 2 135 227
217 1 136 137
218 2 136 228
219 3 137 138
220 3 138 139
221 3 138 140
222 1 139 141
223 4 139 142
224 1 140 143
225 4 140 144
226 1 141 143
227 1 141 145
228 1 143 146
229 1 145 147
230 2 145 229
231 1 146 148
232 2 146 230
233 1 147 148
234 1 147 149
235 2 148 231
236 1 149 150
237 1 149 151
238 1 150 152
239 2 150 232
240 1 151 153
241 2 151 233
242 1 152 154
243 2 152 234
244 1 153 154
245 2 153 235
246 3 154 155
247 3 155 156
248 3 155 157
249 1 156 158
250 4 156 159
251 4 157 160
252 1 157 161
253 1 158 161
254 1 158 162
255 1 161 163
256 1 162 164
257 2 162 236
258 1 163 165
259 2 163 237
260 1 164 165
261 2 164 166
262 2 165 238
263 1 167 169
264 2 167 239
265 1 168 170
266 2 168 240
267 1 169 171
268 2 169 241
269 1 170 171
270 2 170 242
271 2 171 172
272 3 243 244
273 3 243 245
274 3 243 246
275 1 244 409
276 1 244 410
277 1 245 247
278 4 245 248
279 1 246 249
280 4 246 250
281 1 247 249
282 1 247 251
283 1 249 252
284 1 251 253
285 2 251 415
286 1 252 254
287 2 252 416
288 1 253 254
289 1 253 255
290 2 254 417
291 1 255 256
292 1 255 257
293 1 256 258
294 2 256 418
295 1 257 259
296 2 257 419
297 1 258 260
298 2 258 420
299 1 259 260
300 2 259 421
301 3 260 261
302 3 261 262
303 3 261 263
304 1 262 264
305 4 262 265
306 1 263 266
307 4 263 267
308 1 264 266
309 1 264 268
310 1 266 269
311 1 268 270
312 2 268 422
313 1 269 271
314 2 269 423
315 1 270 271
316 1 270 272
317 2 271 424
318 1 272 273
319 1 272 274
320 1 273 275
321 2 273 425
322 1 274 276
323 2 274 426
324 1 275 277
325 2 275 427
326 1 276 277
327 2 276 428
328 3 277 278
329 3 278 279
330 3 278 280
331 1 279 281
332 4 279 282
333 1 280 283
334 4 280 284
335 1 281 283
336 1 281 285
337 1 283 286
338 1 285 287
339 2 285 429
340 1 286 288
341 2 286 430
342 1 287 288
343 1 287 289
344 2 288 431
345 1 289 290
346 1 289 291
347 1 290 292
348 2 290 432
349 1 291 293
350 2 291 433
351 1 292 294
352 2 292 434
353 1 293 294
354 2 293 435
355 3 294 295
356 3 295 296
357 3 295 297
358 1 296 298
359 4 296 299
360 1 297 300
361 4 297 301
362 1 298 300
363 1 298 302
364 1 300 303
365 1 302 304
366 2 302 436
367 1 303 305
368 2 303 437
369 1 304 305
370 1 304 306
371 2 305 438
372 1 306 307
373 1 306 308
374 1 307 309
375 2 307 439
376 1 308 310
377 2 308 440
378 1 309 311
379 2 309 441
380 1 310 311
381 2 310 442
382 3 311 312
383 3 312 313
384 3 312 314
385 1 313 315
386 4 313 316
387 1 314 317
388 4 314 318
389 1 315 317
390 1 315 319
391 1 317 320
392 1 319 321
393 2 319 443
394 1 320 322
395 2 320 444
396 1 321 322
397 1 321 323
398 2 322 445
399 1 323 324
400 1 323 325
401 1 324 326
402 2 324 446
403 1 325 327
404 2 325 447
405 1 326 328
406 2 326 448
407 1 327 328
408 2 327 449
409 3 328 329
410 3 329 330
411 3 329 331
412 1 330 332
413 4 330 333
414 1 331 334
415 4 331 335
416 1 332 334
417 1 332 336
418 1 334 337
419 1 336 338
420 2 336 450
421 1 337 339
422 2 337 451
423 1 338 339
424 1 338 340
425 2 339 452
426 1 340 341
427 1 340 342
428 1 341 343
429 2 341 453
430 1 342 344
431 2 342 454
432 1 343 345
433 2 343 455
434 1 344 345
435 2 344 456
436 3 345 346
437 3 346 347
438 3 346 348
439 1 347 349
440 4 347 350
441 1 348 351
442 4 348 352
443 1 349 351
444 1 349 353
445 1 351 354
446 1 353 355
447 2 353 457
448 1 354 356
449 2 354 458
450 1 355 356
451 1 355 357
452 2 356 459
453 1 357 358
454 1 357 359
455 1 358 360
456 2 358 460
457 1 359 361
458 2 359 461
459 1 360 362
460 2 360 462
461 1 361 362
462 2 361 463
463 3 362 363
464 3 363 364
465 3 363 365
466 1 364 366
467 4 364 367
468 1 365 368
469 4 365 369
470 1 366 368
471 1 366 370
472 1 368 371
473 1 370 372
474 2 370 464
475 1 371 373
476 2 371 465
477 1 372 373
478 1 372 374
479 2 373 466
480 1 374 375
481 1 374 376
482 1 375 377
483 2 375 467
484 1 376 378
485 2 376 468
486 1 377 379
487 2 377 469
488 1 378 379
489 2 378 470
490 3 379 380
491 3 380 381
492 3 380 382
493 1 381 383
494 4 381 384
495 1 382 385
496 4 382 386
497 1 383 385
498 1 383 387
499 1 385 388
500 1 387 389
501 2 387 471
502 1 388 390
503 2 388 472
504 1 389 390
505 1 389 391
506 2 390 473
507 1 391 392
508 1 391 393
509 1 392 394
510 2 392 474
511 1 393 395
512 2 393 475
513 1 394 396
514 2 394 476
515 1 395 396
516 2 395 477
517 3 396 397
518 3 397 398
519 3 397 399
520 1 398 400
521 4 398 401
522 4 399 402
523 1 399 403
524 1 400 403
525 1 400 404
526 1 403 405
527 1 404 406
528 2 404 478
529 1 405 407
530 2 405 479
531 1 406 407
532 2 406 408
533 2 407 480
534 1 409 411
535 2 409 481
536 1 410 412
537 2 410 482
538 1 411 413
539 2 411 483
540 1 412 413
541 2 412 484
542 2 413 414
543 3 485 486
544 3 485 487
545 3 485 488
546 1 486 651
547 1 486 652
548 1 487 489
549 4 487 490
550 1 488 491
551 4 488 492
552 1 489 491
553 1 489 493
554 1 491 494
555 1 493 495
556 2 493 657
557 1 494 496
558 2 494 658
559 1 495 496
560 1 495 497
561 2 496 659
562 1 497 498
563 1 497 499
564 1 498 500
565 2 498 660
566 1 499 501
567 2 499 661
568 1 500 502
569 2 500 662
570 1 501 502
571 2 501 663
572 3 502 503
573 3 503 504
574 3 503 505
575 1 504 506
576 4 504 507
577 1 505 508
578 4 505 509
579 1 506 508
580 1 506 510
581 1 508 511
582 1 510 512
583 2 510 664
584 1 511 513
585 2 511 665
586 1 512 513
587 1 512 514
588 2 513 666
589 1 514 515
590 1 514 516
591 1 515 517
592 2 515 667
593 1 516 518
594 2 516 668
595 1 517 519
596 2 517 669
597 1 518 519
598 2 518 670
599 3 519 520
600 3 520 521
601 3 520 522
602 1 521 523
603 4 521 524
604 1 522 525
605 4 522 526
606 1 523 525
607 1 523 527
608 1 525 528
609 1 527 529
610 2 527 671
611 1 528 530
612 2 528 672
613 1 529 530
614 1 529 531
615 2 530 673
616 1 531 532
617 1 531 533
618 1 532 534
619 2 532 674
620 1 533 535
621 2 533 675
622 1 534 536
623 2 534 676
624 1 535 536
625 2 535 677
626 3 536 537
627 3 537 538
628 3 537 539
629 1 538 540
630 4 538 541
631 1 539 542
632 4 539 543
633 1 540 542
634 1 540 544
635 1 542 545
636 1 544 546
637 2 544 678
638 1 545 547
639 2 545 679
640 1 546 547
641 1 546 548
642 2 547 680
643 1 548 549
644 1 548 550
645 1 549 551
646 2 549 681
647 1 550 552
648 2 550 682
649 1 551 553
650 2 551 683
651 1 552 553
652 2 552 684
653 3 553 554
654 3 554 555
655 3 554 556
656 1 555 557
657 4 555 558
658 1 556 559
659 4 556 560
660 1 557 559
661 1 557 561
662 1 559 562
663 1 561 563
664 2 561 685
665 1 562 564
666 2 562 686
667 1 563 564
668 1 563 565
669 2 564 687
670 1 565 566
671 1 565 567
672 1 566 568
673 2 566 688
674 1 567 569
675 2 567 689
676 1 568 570
677 2 568 690
678 1 569 570
679 2 569 691
680 3 570 571
681 3 571 572
682 3 571 573
683 1 572 574
684 4 572 575
685 1 573 576
686 4 573 577
687 1 574 576
688 1 574 578
689 1 576 579
690 1 578 580
691 2 578 692
692 1 579 581
693 2 579 693
694 1 580 581
695 1 580 582
696 2 581 694
697 1 582 583
698 1 582 584
699 1 583 585
700 2 583 695
701 1 584 586
702 2 584 696
703 1 585 587
704 2 585 697
705 1 586 587
706 2 586 698
707 3 587 588
708 3 588 589
709 3 588 590
710 1 589 591
711 4 589 592
712 1 590 593
713 4 590 594
714 1 591 593
715 1 591 595
716 1 593 596
717 1 595 597
718 2 595 699
719 1 596 598
720 2 596 700
721 1 597 598
722 1 597 599
723 2 598 701
724 1 599 600
725 1 599 601
726 1 600 602
727 2 600 702
728 1 601 603
729 2 601 703
730 1 602 604
731 2 602 704
732 1 603 604
733 2 603 705
734 3 604 605
735 3 605 606
736 3 605 607
737 1 606 608
738 4 606 609
739 1 607 610
740 4 607 611
741 1 608 610
742 1 608 612
743 1 610 613
744 1 612 614
745 2 612 706
746 1 613 615
747 2 613 707
748 1 614 615
749 1 614 616
750 2 615 708
751 1 616 617
752 1 616 618
753 1 617 619
754 2 617 709
755 1 618 620
756 2 618 710
757 1 619 621
758 2 619 711
759 1 620 621
760 2 620 712
761 3 621 622
762 3 622 623
763 3 622 624
764 1 623 625
765 4 623 626
766 1 624 627
767 4 624 628
768 1 625 627
769 1 625 629
770 1 627 630
771 1 629 631
772 2 629 713
773 1 630 632
774 2 630 714
775 1 631 632
776 1 631 633
777 2 632 715
778 1 633 634
779 1 633 635
780 1 634 636
781 2 634 716
782 1 635 637
783 2 635 717
784 1 636 638
785 2 636 718
786 1 637 638
787 2 637 719
788 3 638 639
789 3 639 640
790 3 639 641
791 1 640 642
792 4 640 643
793 4 641 644
794 1 641 645
795 1 642 645
796 1 642 646
797 1 645 647
798 1 646 648
799 2 646 720
800 1 647 649
801 2 647 721
802 1 648 649
803 2 648 650
804 2 649 722
805 1 651 653
806 2 651 723
807 1 652 654
808 2 652 724
809 1 653 655
810 2 653 725
811 1 654 655
812 2 654 726
813 2 655 656
814 3 727 728
815 3 727 729
816 3 727 730
817 1 728 893
818 1 728 894
819 1 729 731
820 4 729 732
821 1 730 733
822 4 730 734
823 1 731 733
824 1 731 735
825 1 733 736
826 1 735 737
827 2 735 899
828 1 736 738
829 2 736 900
830 1 737 738
831 1 737 739
832 2 738 901
833 1 739 740
834 1 739 741
835 1 740 742
836 2 740 902
837 1 741 743
838 2 741 903
839 1 742 744
840 2 742 904
841 1 743 744
842 2 743 905
843 3 744 745
844 3 745 746
845 3 745 747
846 1 746 748
847 4 746 749
848 1 747 750
849 4 747 751
850 1 748 750
851 1 748 752
852 1 750 753
853 1 752 754
854 2 752 906
855 1 753 755
856 2 753 907
857 1 754 755
858 1 754 756
859 2 755 908
860 1 756 757
861 1 756 758
862 1 757 759
863 2 757 909
864 1 758 760
865 2 758 910
866 1 759 761
867 2 759 911
868 1 760 761
869 2 760 912
870 3 761 762
871 3 762 763
872 3 762 764
873 1 763 765
874 4 763 766
875 1 764 767
876 4 764 768
877 1 765 767
878 1 765 769
879 1 767 770
880 1 769 771
881 2 769 913
882 1 770 772
883 2 770 914
884 1 771 772
885 1 771 773
886 2 772 915
887 1 773 774
888 1 773 775
889 1 774 776
890 2 774 916
891 1 775 777
892 2 775 917
893 1 776 778
894 2 776 918
895 1 777 778
896 2 777 919
897 3 778 779
898 3 779 780
899 3 779 781
900 1 780 782
901 4 780 783
902 1 781 784
903 4 781 785
904 1 782 784
905 1 782 786
906 1 784 787
907 1 786 788
908 2 786 920
909 1 787 789
910 2 787 921
911 1 788 789
912 1 788 790
913 2 789 922
914 1 790 791
915 1 790 792
916 1 791 793
917 2 791 923
918 1 792 794
919 2 792 924
920 1 793 795
921 2 793 925
922 1 794 795
923 2 794 926
924 3 795 796
925 3 796 797
926 3 796 798
927 1 797 799
928 4 797 800
929 1 798 801
930 4 798 802
931 1 799 801
932 1 799 803
933 1 801 804
934 1 803 805
935 2 803 927
936 1 804 806
937 2 804 928
938 1 805 806
939 1 805 807
940 2 806 929
941 1 807 808
942 1 807 809
943 1 808 810
944 2 808 930
945 1 809 811
946 2 809 931
947 1 810 812
948 2 810 932
949 1 811 812
950 2 811 933
951 3 812 813
952 3 813 814
953 3 813 815
954 1 814 816
955 4 814 817
956 1 815 818
957 4 815 819
958 1 816 818
959 1 816 820
960 1 818 821
961 1 820 822
962 2 820 934
963 1 821 823
964 2 821 935
965 1 822 823
966 1 822 824
967 2 823 936
968 1 824 825
969 1 824 826
970 1 825 827
971 2 825 937
972 1 826 828
973 2 826 938
974 1 827 829
975 2 827 939
976 1 828 829
977 2 828 940
978 3 829 830
979 3 830 831
980 3 830 832
981 1 831 833
982 4 831 834
983 1 832 835
984 4 832 836
985 1 833 835
986 1 833 837
987 1 835 838
988 1 837 839
989 2 837 941
990 1 838 840
991 2 838 942
992 1 839 840
993 1 839 841
994 2 840 943
995 1 841 842
996 1 841 843
997 1 842 844
998 2 842 944
999 1 843 845
1000 2 843 945
1001 1 844 846
1002 2 844 946
1003 1 845 846
1004 2 845 947
1005 3 846 847
1006 3 847 848
1007 3 847 849
1008 1 848 850
1009 4 848 851
1010 1 849 852
1011 4 849 853
1012 1 850 852
1013 1 850 854
1014 1 852 855
1015 1 854 856
1016 2 854 948
1017 1 855 857
1018 2 855 949
1019 1 856 857
1020 1 856 858
1021 2 857 950
1022 1 858 859
1023 1 858 860
1024 1 859 861
1025 2 859 951
1026 1 860 862
1027 2 860 952
1028 1 861 863
1029 2 861 953
1030 1 862 863
1031 2 862 954
1032 3 863 864
1033 3 864 865
1034 3 864 866
1035 1 865 867
1036 4 865 868
1037 1 866 869
1038 4 866 870
1039 1 867 869
1040 1 867 871
1041 1 869 872
1042 1 871 873
1043 2 871 955
1044 1 872 874
1045 2 872 956
1046 1 873 874
1047 1 873 875
1048 2 874 957
1049 1 875 876
1050 1 875 877
1051 1 876 878
1052 2 876 958
1053 1 877 879
1054 2 877 959
1055 1 878 880
1056 2 878 960
1057 1 879 880
1058 2 879 961
1059 3 880 881
1060 3 881 882
1061 3 881 883
1062 1 882 884
1063 4 882 885
1064 4 883 886
1065 1 883 887
1066 1 884 887
1067 1 884 888
1068 1 887 889
1069 1 888 890
1070 2 888 962
1071 1 889 891
1072 2 889 963
1073 1 890 891
1074 2 890 892
1075 2 891 964
1076 1 893 895
1077 2 893 965
1078 1 894 896
1079 2 894 966
1080 1 895 897
1081 2 895 967
1082 1 896 897
1083 2 896 968
1084 2 897 898
1085 3 969 970
1086 3 969 971
1087 3 969 972
1088 1 970 1135
1089 1 970 1136
1090 1 971 973
1091 4 971 974
1092 1 972 975
1093 4 972 976
1094 1 973 975
1095 1 973 977
1096 1 975 978
1097 1 977 979
1098 2 977 1141
1099 1 978 980
1100 2 978 1142
1101 1 979 980
1102 1 979 981
1103 2 980 1143
1104 1 981 982
1105 1 981 983
1106 1 982 984
1107 2 982 1144
1108 1 983 985
1109 2 983 1145
1110 1 984 986
1111 2 984 1146
1112 1 985 986
1113 2 985 1147
1114 3 986 987
1115 3 987 988
1116 3 987 989
1117 1 988 990
1118 4 988 991
1119 1 989 992
1120 4 989 993
1121 1 990 992
1122 1 990 994
1123 1 992 995
1124 1 994 996
1125 2 994 1148
1126 1 995 997
1127 2 995 1149
1128 1 996 997
1129 1 996 998
1130 2 997 1150
1131 1 998 999
1132 1 998 1000
1133 1 999 1001
1134 2 999 1151
1135 1 1000 1002
1136 2 1000 1152
1137 1 1001 1003
1138 2 1001 1153
1139 1 1002 1003
1140 2 1002 1154
1141 3 1003 1004
1142 3 1004 1005
1143 3 1004 1006
1144 1 1005 1007
1145 4 1005 1008
1146 1 1006 1009
1147 4 1006 1010
1148 1 1007 1009
1149 1 1007 1011
1150 1 1009 1012
1151 1 1011 1013
1152 2 1011 1155
1153 1 1012 1014
1154 2 1012 1156
1155 1 1013 1014
1156 1 1013 1015
1157 2 1014 1157
1158 1 1015 1016
1159 1 1015 1017
1160 1 1016 1018
1161 2 1016 1158
1162 1 1017 1019
1163 2 1017 1159
1164 1 1018 1020
1165 2 1018 1160
1166 1 1019 1020
1167 2 1019 1161
1168 3 1020 1021
1169 3 1021 1022
1170 3 1021 1023
1171 1 1022 1024
1172 4 1022 1025
1173 1 1023 1026
1174 4 1023 1027
1175 1 1024 1026
1176 1 1024 1028
1177 1 1026 1029
1178 1 1028 1030
1179 2 1028 1162
1180 1 1029 1031
1181 2 1029 1163
1182 1 1030 1031
1183 1 1030 1032
1184 2 1031 1164
1185 1 1032 1033
1186 1 1032 1034
1187 1 1033 1035
1188 2 1033 1165
1189 1 1034 1036
1190 2 1034 1166
1191 1 1035 1037
1192 2 1035 1167
1193 1 1036 1037
1194 2 1036 1168
1195 3 1037 1038
1196 3 1038 1039
1197 3 1038 1040
1198 1 1039 1041
1199 4 1039 1042
1200 1 1040 1043
1201 4 1040 1044
1202 1 1041 1043
1203 1 1041 1045
1204 1 1043 1046
1205 1 1045 1047
1206 2 1045 1169
1207 1 1046 1048
1208 2 1046 1170
1209 1 1047 1048
1210 1 1047 1049
1211 2 1048 1171
1212 1 1049 1050
1213 1 1049 1051
1214 1 1050 1052
1215 2 1050 1172
1216 1 1051 1053
1217 2 1051 1173
1218 1 1052 1054
1219 2 1052 1174
1220 1 1053 1054
1221 2 1053 1175
1222 3 1054 1055
1223 3 1055 1056
1224 3 1055 1057
1225 1 1056 1058
1226 4 1056 1059
1227 1 1057 1060
1228 4 1057 1061
1229 1 1058 1060
1230 1 1058 1062
1231 1 1060 1063
1232 1 1062 1064
1233 2 1062 1176
1234 1 1063 1065
1235 2 1063 1177
1236 1 1064 1065
1237 1 1064 1066
1238 2 1065 1178
1239 1 1066 1067
1240 1 1066 1068
1241 1 1067 1069
1242 2 1067 1179
1243 1 1068 1070
1244 2 1068 1180
1245 1 1069 1071
1246 2 1069 1181
1247 1 1070 1071
1248 2 1070 1182
1249 3 1071 1072
1250 3 1072 1073
1251 3 1072 1074
1252 1 1073 1075
1253 4 1073 1076
1254 1 1074 1077
1255 4 1074 1078
1256 1 1075 1077
1257 1 1075 1079
1258 1 1077 1080
1259 1 1079 1081
1260 2 1079 1183
1261 1 1080 1082
1262 2 1080 1184
1263 1 1081 1082
1264 1 1081 1083
1265 2 1082 1185
1266 1 1083 1084
1267 1 1083 1085
1268 1 1084 1086
1269 2 1084 1186
1270 1 1085 1087
1271 2 1085 1187
1272 1 1086 1088
1273 2 1086 1188
1274 1 1087 1088
1275 2 1087 1189
1276 3 1088 1089
1277 3 1089 1090
1278 3 1089 1091
1279 1 1090 1092
1280 4 1090 1093
1281 1 1091 1094
1282 4 1091 1095
1283 1 1092 1094
1284 1 1092 1096
1285 1 1094 1097
1286 1 1096 1098
1287 2 1096 1190
1288 1 1097 1099
1289 2 1097 1191
1290 1 1098 1099
1291 1 1098 1100
1292 2 1099 1192
1293 1 1100 1101
1294 1 1100 1102
1295 1 1101 1103
1296 2 1101 1193
1297 1 1102 1104
1298 2 1102 1194
1299 1 1103 1105
1300 2 1103 1195
1301 1 1104 1105
1302 2 1104 1196
1303 3 1105 1106
1304 3 1106 1107
1305 3 1106 1108
1306 1 1107 1109
1307 4 1107 1110
1308 1 1108 1111
1309 4 1108 1112
1310 1 1109 1111
1311 1 1109 1113
1312 1 1111 1114
1313 1 1113 1115
1314 2 1113 1197
1315 1 1114 1116
1316 2 1114 1198
1317 1 1115 1116
1318 1 1115 1117
1319 2 1116 1199
1320 1 1117 1118
1321 1 1117 1119
1322 1 1118 1120
1323 2 1118 1200
1324 1 1119 1121
1325 2 1119 1201
1326 1 1120 1122
1327 2 1120 1202
1328 1 1121 1122
1329 2 1121 1203
1330 3 1122 1123
1331 3 1123 1124
1332 3 1123 1125
1333 1 1124 1126
1334 4 1124 1127
1335 4 1125 1128
1336 1 1125 1129
1337 1 1126 1129
1338 1 1126 1130
1339 1 1129 1131
1340 1 1130 1132
1341 2 1130 1204
1342 1 1131 1133
1343 2 1131 1205
1344 1 1132 1133
1345 2 1132 1134
1346 2 1133 1206
1347 1 1135 1137
1348 2 1135 1207
1349 1 1136 1138
1350 2 1136 1208
1351 1 1137 1139
1352 2 1137 1209
1353 1 1138 1139
1354 2 1138 1210
1355 2 1139 1140
1356 3 1211 1212
1357 3 1211 1213
1358 3 1211 1214
1359 1 1212 1377
1360 1 1212 1378
1361 1 1213 1215
1362 4 1213 1216
1363 1 1214 1217
1364 4 1214 1218
1365 1 1215 1217
1366 1 1215 1219
1367 1 1217 1220
1368 1 1219 1221
1369 2 1219 1383
1370 1 1220 1222
1371 2 1220 1384
1372 1 1221 1222
1373 1 1221 1223
1374 2 1222 1385
1375 1 1223 1224
1376 1 1223 1225
1377 1 1224 1226
1378 2 1224 1386
1379 1 1225 1227
1380 2 1225 1387
1381 1 1226 1228
1382 2 1226 1388
1383 1 1227 1228
1384 2 1227 1389
1385 3 1228 1229
1386 3 1229 1230
1387 3 1229 1231
1388 1 1230 1232
1389 4 1230 1233
1390 1 1231 1234
1391 4 1231 1235
1392 1 1232 1234
1393 1 1232 1236
1394 1 1234 1237
1395 1 1236 1238
1396 2 1236 1390
1397 1 1237 1239
1398 2 1237 1391
1399 1 1238 1239
1400 1 1238 1240
1401 2 1239 1392
1402 1 1240 1241
1403 1 1240 1242
1404 1 1241 1243
1405 2 1241 1393
1406 1 1242 1244
1407 2 1242 1394
1408 1 1243 1245
1409 2 1243 1395
1410 1 1244 1245
1411 2 1244 1396
1412 3 1245 1246
1413 3 1246 1247
1414 3 1246 1248
1415 1 1247 1249
1416 4 1247 1250
1417 1 1248 1251
1418 4 1248 1252
1419 1 1249 1251
1420 1 1249 1253
1421 1 1251 1254
1422 1 1253 1255
1423 2 1253 1397
1424 1 1254 1256
1425 2 1254 1398
1426 1 1255 1256
1427 1 1255 1257
1428 2 1256 1399
1429 1 1257 1258
1430 1 1257 1259
1431 1 1258 1260
1432 2 1258 1400
1433 1 1259 1261
1434 2 1259 1401
1435 1 1260 1262
1436 2 1260 1402
1437 1 1261 1262
1438 2 1261 1403
1439 3 1262 1263
1440 3 1263 1264
1441 3 1263 1265
1442 1 1264 1266
1443 4 1264 1267
1444 1 1265 1268
1445 4 1265 1269
1446 1 1266 1268
1447 1 1266 1270
1448 1 1268 1271
1449 1 1270 1272
1450 2 1270 1404
1451 1 1271 1273
1452 2 1271 1405
1453 1 1272 1273
1454 1 1272 1274
1455 2 1273 1406
1456 1 1274 1275
1457 1 1274 1276
1458 1 1275 1277
1459 2 1275 1407
1460 1 1276 1278
1461 2 1276 1408
1462 1 1277 1279
1463 2 1277 1409
1464 1 1278 1279
1465 2 1278 1410
1466 3 1279 1280
1467 3 1280 1281
1468 3 1280 1282
1469 1 1281 1283
1470 4 1281 1284
1471 1 1282 1285
1472 4 1282 1286
1473 1 1283 1285
1474 1 1283 1287
1475 1 1285 1288
1476 1 1287 1289
1477 2 1287 1411
1478 1 1288 1290
1479 2 1288 1412
1480 1 1289 1290
1481 1 1289 1291
1482 2 1290 1413
1483 1 1291 1292
1484 1 1291 1293
1485 1 1292 1294
1486 2 1292 1414
1487 1 1293 1295
1488 2 1293 1415
1489 1 1294 1296
1490 2 1294 1416
1491 1 1295 1296
1492 2 1295 1417
1493 3 1296 1297
1494 3 1297 1298
1495 3 1297 1299
1496 1 1298 1300
1497 4 1298 1301
1498 1 1299 1302
1499 4 1299 1303
1500 1 1300 1302
1501 1 1300 1304
1502 1 1302 1305
1503 1 1304 1306
1504 2 1304 1418
1505 1 1305 1307
1506 2 1305 1419
1507 1 1306 1307
1508 1 1306 1308
1509 2 1307 1420
1510 1 1308 1309
1511 1 1308 1310
1512 1 1309 1311
1513 2 1309 1421
1514 1 1310 1312
1515 2 1310 1422
1516 1 1311 1313
1517 2 1311 1423
1518 1 1312 1313
1519 2 1312 1424
1520 3 1313 1314
1521 3 1314 1315
1522 3 1314 1316
1523 1 1315 1317
1524 4 1315 1318
1525 1 1316 1319
1526 4 1316 1320
1527 1 1317 1319
1528 1 1317 1321
1529 1 1319 1322
1530 1 1321 1323
1531 2 1321 1425
1532 1 1322 1324
1533 2 1322 1426
1534 1 1323 1324
1535 1 1323 1325
1536 2 1324 1427
1537 1 1325 1326
1538 1 1325 1327
1539 1 1326 1328
1540 2 1326 1428
1541 1 1327 1329
1542 2 1327 1429
1543 1 1328 1330
1544 2 1328 1430
1545 1 1329 1330
1546 2 1329 1431
1547 3 1330 1331
1548 3 1331 1332
1549 3 1331 1333
1550 1 1332 1334
1551 4 1332 1335
1552 1 1333 1336
1553 4 1333 1337
1554 1 1334 1336
1555 1 1334 1338
1556 1 1336 1339
1557 1 1338 1340
1558 2 1338 1432
1559 1 1339 1341
1560 2 1339 1433
1561 1 1340 1341
1562 1 1340 1342
1563 2 1341 1434
1564 1 1342 1343
1565 1 1342 1344
1566 1 1343 1345
1567 2 1343 1435
1568 1 1344 1346
1569 2 1344 1436
1570 1 1345 1347
1571 2 1345 1437
1572 1 1346 1347
1573 2 1346 1438
1574 3 1347 1348
1575 3 1348 1349
1576 3 1348 1350
1577 1 1349 1351
1578 4 1349 1352
1579 1 1350 1353
1580 4 1350 1354
1581 1 1351 1353
1582 1 1351 1355
1583 1 1353 1356
1584 1 1355 1357
1585 2 1355 1439
1586 1 1356 1358
1587 2 1356 1440
1588 1 1357 1358
1589 1 1357 1359
1590 2 1358 1441
1591 1 1359 1360
1592 1 1359 1361
1593 1 1360 1362
1594 2 1360 1442
1595 1 1361 1363
1596 2 1361 1443
1597 1 1362 1364
1598 2 1362 1444
1599 1 1363 1364
1600 2 1363 1445
1601 3 1364 1365
1602 3 1365 1366
1603 3 1365 1367
1604 1 1366 1368
1605 4 1366 1369
1606 4 1367 1370
1607 1 1367 1371
1608 1 1368 1371
1609 1 1368 1372
1610 1 1371 1373
1611 1 1372 1374
1612 2 1372 1446
1613 1 1373 1375
1614 2 1373 1447
1615 1 1374 1375
1616 2 1374 1376
1617 2 1375 1448
1618 1 1377 1379
1619 2 1377 1449
1620 1 1378 1380
1621 2 1378 1450
1622 1 1379 1381
1623 2 1379 1451
1624 1 1380 1381
1625 2 1380 1452
1626 2 1381 1382
1627 3 1453 1454
1628 3 1453 1455
1629 3 1453 1456
1630 1 1454 1619
1631 1 1454 1620
1632 1 1455 1457
1633 4 1455 1458
1634 1 1456 1459
1635 4 1456 1460
1636 1 1457 1459
1637 1 1457 1461
1638 1 1459 1462
1639 1 1461 1463
1640 2 1461 1625
1641 1 1462 1464
1642 2 1462 1626
1643 1 1463 1464
1644 1 1463 1465
1645 2 1464 1627
1646 1 1465 1466
1647 1 1465 1467
1648 1 1466 1468
1649 2 1466 1628
1650 1 1467 1469
1651 2 1467 1629
1652 1 1468 1470
1653 2 1468 1630
1654 1 1469 1470
1655 2 1469 1631
1656 3 1470 1471
1657 3 1471 1472
1658 3 1471 1473
1659 1 1472 1474
1660 4 1472 1475
1661 1 1473 1476
1662 4 1473 1477
1663 1 1474 1476
1664 1 1474 1478
1665 1 1476 1479
1666 1 1478 1480
1667 2 1478 1632
1668 1 1479 1481
1669 2 1479 1633
1670 1 1480 1481
1671 1 1480 1482
1672 2 1481 1634
1673 1 1482 1483
1674 1 1482 1484
1675 1 1483 1485
1676 2 1483 1635
1677 1 1484 1486
1678 2 1484 1636
1679 1 1485 1487
1680 2 1485 1637
1681 1 1486 1487
1682 2 1486 1638
1683 3 1487 1488
1684 3 1488 1489
1685 3 1488 1490
1686 1 1489 1491
1687 4 1489 1492
1688 1 1490 1493
1689 4 1490 1494
1690 1 1491 1493
1691 1 1491 1495
1692 1 1493 1496
1693 1 1495 1497
1694 2 1495 1639
1695 1 1496 1498
1696 2 1496 1640
1697 1 1497 1498
1698 1 1497 1499
1699 2 1498 1641
1700 1 1499 1500
1701 1 1499 1501
1702 1 1500 1502
1703 2 1500 1642
1704 1 1501 1503
1705 2 1501 1643
1706 1 1502 1504
1707 2 1502 1644
1708 1 1503 1504
1709 2 1503 1645
1710 3 1504 1505
1711 3 1505 1506
1712 3 1505 1507
1713 1 1506 1508
1714 4 1506 1509
1715 1 1507 1510
1716 4 1507 1511
1717 1 1508 1510
1718 1 1508 1512
1719 1 1510 1513
1720 1 1512 1514
1721 2 1512 1646
1722 1 1513 1515
1723 2 1513 1647
1724 1 1514 1515
1725 1 1514 1516
1726 2 1515 1648
1727 1 1516 1517
1728 1 1516 1518
1729 1 1517 1519
1730 2 1517 1649
1731 1 1518 1520
1732 2 1518 1650
1733 1 1519 1521
1734 2 1519 1651
1735 1 1520 1521
1736 2 1520 1652
1737 3 1521 1522
1738 3 1522 1523
1739 3 1522 1524
1740 1 1523 1525
1741 4 1523 1526
1742 1 1524 1527
1743 4 1524 1528
1744 1 1525 1527
1745 1 1525 1529
1746 1 1527 1530
1747 1 1529 1531
1748 2 1529 1653
1749 1 1530 1532
1750 2 1530 1654
1751 1 1531 1532
1752 1 1531 1533
1753 2 1532 1655
1754 1 1533 1534
1755 1 1533 1535
1756 1 1534 1536
1757 2 1534 1656
1758 1 1535 1537
1759 2 1535 1657
1760 1 1536 1538
1761 2 1536 1658
1762 1 1537 1538
1763 2 1537 1659
1764 3 1538 1539
1765 3 1539 1540
1766 3 1539 1541
1767 1 1540 1542
1768 4 1540 1543
1769 1 1541 1544
1770 4 1541 1545
1771 1 1542 1544
1772 1 1542 1546
1773 1 1544 1547
1774 1 1546 1548
1775 2 1546 1660
1776 1 1547 1549
1777 2 1547 1661
1778 1 1548 1549
1779 1 1548 1550
1780 2 1549 1662
1781 1 1550 1551
1782 1 1550 1552
1783 1 1551 1553
1784 2 1551 1663
1785 1 1552 1554
1786 2 1552 1664
1787 1 1553 1555
1788 2 1553 1665
1789 1 1554 1555
1790 2 1554 1666
1791 3 1555 1556
1792 3 1556 1557
1793 3 1556 1558
1794 1 1557 1559
1795 4 1557 1560
1796 1 1558 1561
1797 4 1558 1562
1798 1 1559 1561
1799 1 1559 1563
1800 1 1561 1564
1801 1 1563 1565
1802 2 1563 1667
1803 1 1564 1566
1804 2 1564 1668
1805 1 1565 1566
1806 1 1565 1567
1807 2 1566 1669
1808 1 1567 1568
1809 1 1567 1569
1810 1 1568 1570
1811 2 1568 1670
1812 1 1569 1571
1813 2 1569 1671
1814 1 1570 1572
1815 2 1570 1672
1816 1 1571 1572
1817 2 1571 1673
1818 3 1572 1573
1819 3 1573 1574
1820 3 1573 1575
1821 1 1574 1576
1822 4 1574 1577
1823 1 1575 1578
1824 4 1575 1579
1825 1 1576 1578
1826 1 1576 1580
1827 1 1578 1581
1828 1 1580 1582
1829 2 1580 1674
1830 1 1581 1583
1831 2 1581 1675
1832 1 1582 1583
1833 1 1582 1584
1834 2 1583 1676
1835 1 1584 1585
1836 1 1584 1586
1837 1 1585 1587
1838 2 1585 1677
1839 1 1586 1588
1840 2 1586 1678
1841 1 1587 1589
1842 2 1587 1679
1843 1 1588 1589
1844 2 1588 1680
1845 3 1589 1590
1846 3 1590 1591
1847 3 1590 1592
1848 1 1591 1593
1849 4 1591 1594
1850 1 1592 1595
1851 4 1592 1596
1852 1 1593 1595
1853 1 1593 1597
1854 1 1595 1598
1855 1 1597 1599
1856 2 1597 1681
1857 1 1598 1600
1858 2 1598 1682
1859 1 1599 1600
1860 1 1599 1601
1861 2 1600 1683
1862 1 1601 1602
1863 1 1601 1603
1864 1 1602 1604
1865 2 1602 1684
1866 1 1603 1605
1867 2 1603 1685
1868 1 1604 1606
1869 2 1604 1686
1870 1 1605 1606
1871 2 1605 1687
1872 3 1606 1607
1873 3 1607 1608
1874 3 1607 1609
1875 1 1608 1610
1876 4 1608 1611
1877 4 1609 1612
1878 1 1609 1613
1879 1 1610 1613
1880 1 1610 1614
1881 1 1613 1615
1882 1 1614 1616
1883 2 1614 1688
1884 1 1615 1617
1885 2 1615 1689
1886 1 1616 1617
1887 2 1616 1618
1888 2 1617 1690
1889 1 1619 1621
1890 2 1619 1691
1891 1 1620 1622
1892 2 1620 1692
1893 1 1621 1623
1894 2 1621 1693
1895 1 1622 1623
1896 2 1622 1694
1897 2 1623 1624
1898 3 1695 1696
1899 3 1695 1697
1900 3 1695 1698
1901 1 1696 1861
1902 1 1696 1862
1903 1 1697 1699
1904 4 1697 1700
1905 1 1698 1701
1906 4 1698 1702
1907 1 1699 1701
1908 1 1699 1703
1909 1 1701 1704
1910 1 1703 1705
1911 2 1703 1867
1912 1 1704 1706
1913 2 1704 1868
1914 1 1705 1706
1915 1 1705 1707
1916 2 1706 1869
1917 1 1707 1708
1918 1 1707 1709
1919 1 1708 1710
1920 2 1708 1870
1921 1 1709 1711
1922 2 1709 1871
1923 1 1710 1712
1924 2 1710 1872
1925 1 1711 1712
1926 2 1711 1873
1927 3 1712 1713
1928 3 1713 1714
1929 3 1713 1715
1930 1 1714 1716
1931 4 1714 1717
1932 1 1715 1718
1933 4 1715 1719
1934 1 1716 1718
1935 1 1716 1720
1936 1 1718 1721
1937 1 1720 1722
1938 2 1720 1874
1939 1 1721 1723
1940 2 1721 1875
1941 1 1722 1723
1942 1 1722 1724
1943 2 1723 1876
1944 1 1724 1725
1945 1 1724 1726
1946 1 1725 1727
1947 2 1725 1877
1948 1 1726 1728
1949 2 1726 1878
1950 1 1727 1729
1951 2 1727 1879
1952 1 1728 1729
1953 2 1728 1880
1954 3 1729 1730
1955 3 1730 1731
1956 3 1730 1732
1957 1 1731 1733
1958 4 1731 1734
1959 1 1732 1735
1960 4 1732 1736
1961 1 1733 1735
1962 1 1733 1737
1963 1 1735 1738
1964 1 1737 1739
1965 2 1737 1881
1966 1 1738 1740
1967 2 1738 1882
1968 1 1739 1740
1969 1 1739 1741
1970 2 1740 1883
1971 1 1741 1742
1972 1 1741 1743
1973 1 1742 1744
1974 2 1742 1884
1975 1 1743 1745
1976 2 1743 1885
1977 1 1744 1746
1978 2 1744 1886
1979 1 1745 1746
1980 2 1745 1887
1981 3 1746 1747
1982 3 1747 1748
1983 3 1747 1749
1984 1 1748 1750
1985 4 1748 1751
1986 1 1749 1752
1987 4 1749 1753
1988 1 1750 1752
1989 1 1750 1754
1990 1 1752 1755
1991 1 1754 1756
1992 2 1754 1888
1993 1 1755 1757
1994 2 1755 1889
1995 1 1756 1757
1996 1 1756 1758
1997 2 1757 1890
1998 1 1758 1759
1999 1 1758 1760
2000 1 1759 1761
2001 2 1759 1891
2002 1 1760 1762
2003 2 1760 1892
2004 1 1761 1763
2005 2 1761 1893
2006 1 1762 1763
2007 2 1762 1894
2008 3 1763 1764
2009 3 1764 1765
2010 3 1764 1766
2011 1 1765 1767
2012 4 1765 1768
2013 1 1766 1769
2014 4 1766 1770
2015 1 1767 1769
2016 1 1767 1771
2017 1 1769 1772
2018 1 1771 1773
2019 2 1771 1895
2020 1 1772 1774
2021 2 1772 1896
2022 1 1773 1774
2023 1 1773 1775
2024 2 1774 1897
2025 1 1775 1776
2026 1 1775 1777
2027 1 1776 1778
2028 2 1776 1898
2029 1 1777 1779
2030 2 1777 1899
2031 1 1778 1780
2032 2 1778 1900
2033 1 1779 1780
2034 2 1779 1901
2035 3 1780 1781
2036 3 1781 1782
2037 3 1781 1783
2038 1 1782 1784
2039 4 1782 1785
2040 1 1783 1786
2041 4 1783 1787
2042 1 1784 1786
2043 1 1784 1788
2044 1 1786 1789
2045 1 1788 1790
2046 2 1788 1902
2047 1 1789 1791
2048 2 1789 1903
2049 1 1790 1791
2050 1 1790 1792
2051 2 1791 1904
2052 1 1792 1793
2053 1 1792 1794
2054 1 1793 1795
2055 2 1793 1905
2056 1 1794 1796
2057 2 1794 1906
2058 1 1795 1797
2059 2 1795 1907
2060 1 1796 1797
2061 2 1796 1908
2062 3 1797 1798
2063 3 1798 1799
2064 3 1798 1800
2065 1 1799 1801
2066 4 1799 1802
2067 1 1800 1803
2068 4 1800 1804
2069 1 1801 1803
2070 1 1801 1805
2071 1 1803 1806
2072 1 1805 1807
2073 2 1805 1909
2074 1 1806 1808
2075 2 1806 1910
2076 1 1807 1808
2077 1 1807 1809
2078 2 1808 1911
2079 1 1809 1810
2080 1 1809 1811
2081 1 1810 1812
2082 2 1810 1912
2083 1 1811 1813
2084 2 1811 1913
2085 1 1812 1814
2086 2 1812 1914
2087 1 1813 1814
2088 2 1813 1915
2089 3 1814 1815
2090 3 1815 1816
2091 3 1815 1817
2092 1 1816 1818
2093 4 1816 1819
2094 1 1817 1820
2095 4 1817 1821
2096 1 1818 1820
2097 1 1818 1822
2098 1 1820 1823
2099 1 1822 1824
2100 2 1822 1916
2101 1 1823 1825
2102 2 1823 1917
2103 1 1824 1825
2104 1 1824 1826
2105 2 1825 1918
2106 1 1826 1827
2107 1 1826 1828
2108 1 1827 1829
2109 2 1827 1919
2110 1 1828 1830
2111 2 1828 1920
2112 1 1829 1831
2113 2 1829 1921
2114 1 1830 1831
2115 2 1830 1922
2116 3 1831 1832
2117 3 1832 1833
2118 3 1832 1834
2119 1 1833 1835
2120 4 1833 1836
2121 1 1834 1837
2122 4 1834 1838
2123 1 1835 1837
2124 1 1835 1839
2125 1 1837 1840
2126 1 1839 1841
2127 2 1839 1923
2128 1 1840 1842
2129 2 1840 1924
2130 1 1841 1842
2131 1 1841 1843
2132 2 1842 1925
2133 1 1843 1844
2134 1 1843 1845
2135 1 1844 1846
2136 2 1844 1926
2137 1 1845 1847
2138 2 1845 1927
2139 1 1846 1848
2140 2 1846 1928
2141 1 1847 1848
2142 2 1847 1929
2143 3 1848 1849
2144 3 1849 1850
2145 3 1849 1851
2146 1 1850 1852
2147 4 1850 1853
2148 4 1851 1854
2149 1 1851 1855
2150 1 1852 1855
2151 1 1852 1856
2152 1 1855 1857
2153 1 1856 1858
2154 2 1856 1930
2155 1 1857 1859
2156 2 1857 1931
2157 1 1858 1859
2158 2 1858 1860
2159 2 1859 1932
2160 1 1861 1863
2161 2 1861 1933
2162 1 1862 1864
2163 2 1862 1934
2164 1 1863 1865
2165 2 1863 1935
2166 1 1864 1865
2167 2 1864 1936
2168 2 1865 1866
2169 3 1937 1938
2170 3 1937 1939
2171 3 1937 1940
2172 1 1938 2103
2173 1 1938 2104
2174 1 1939 1941
2175 4 1939 1942
2176 1 1940 1943
2177 4 1940 1944
2178 1 1941 1943
2179 1 1941 1945
2180 1 1943 1946
2181 1 1945 1947
2182 2 1945 2109
2183 1 1946 1948
2184 2 1946 2110
2185 1 1947 1948
2186 1 1947 1949
2187 2 1948 2111
2188 1 1949 1950
2189 1 1949 1951
2190 1 1950 1952
2191 2 1950 2112
2192 1 1951 1953
2193 2 1951 2113
2194 1 1952 1954
2195 2 1952 2114
2196 1 1953 1954
2197 2 1953 2115
2198 3 1954 1955
2199 3 1955 1956
2200 3 1955 1957
2201 1 1956 1958
2202 4 1956 1959
2203 1 1957 1960
2204 4 1957 1961
2205 1 1958 1960
2206 1 1958 1962
2207 1 1960 1963
2208 1 1962 1964
2209 2 1962 2116
2210 1 1963 1965
2211 2 1963 2117
2212 1 1964 1965
2213 1 1964 1966
2214 2 1965 2118
2215 1 1966 1967
2216 1 1966 1968
2217 1 1967 1969
2218 2 1967 2119
2219 1 1968 1970
2220 2 1968 2120
2221 1 1969 1971
2222 2 1969 2121
2223 1 1970 1971
2224 2 1970 2122
2225 3 1971 1972
2226 3 1972 1973
2227 3 1972 1974
2228 1 1973 1975
2229 4 1973 1976
2230 1 1974 1977
2231 4 1974 1978
2232 1 1975 1977
2233 1 1975 1979
2234 1 1977 1980
2235 1 1979 1981
2236 2 1979 2123
2237 1 1980 1982
2238 2 1980 2124
2239 1 1981 1982
2240 1 1981 1983
2241 2 1982 2125
2242 1 1983 1984
2243 1 1983 1985
2244 1 1984 1986
2245 2 1984 2126
2246 1 1985 1987
2247 2 1985 2127
2248 1 1986 1988
2249 2 1986 2128
2250 1 1987 1988
2251 2 1987 2129
2252 3 1988 1989
2253 3 1989 1990
2254 3 1989 1991
2255 1 1990 1992
2256 4 1990 1993
2257 1 1991 1994
2258 4 1991 1995
2259 1 1992 1994
2260 1 1992 1996
2261 1 1994 1997
2262 1 1996 1998
2263 2 1996 2130
2264 1 1997 1999
2265 2 1997 2131
2266 1 1998 1999
2267 1 1998 2000
2268 2 1999 2132
2269 1 2000 2001
2270 1 2000 2002
2271 1 2001 2003
2272 2 2001 2133
2273 1 2002 2004
2274 2 2002 2134
2275 1 2003 2005
2276 2 2003 2135
2277 1 2004 2005
2278 2 2004 2136
2279 3 2005 2006
2280 3 2006 2007
2281 3 2006 2008
2282 1 2007 2009
2283 4 2007 2010
2284 1 2008 2011
2285 4 2008 2012
2286 1 2009 2011
2287 1 2009 2013
2288 1 2011 2014
2289 1 2013 2015
2290 2 2013 2137
2291 1 2014 2016
2292 2 2014 2138
2293 1 2015 2016
2294 1 2015 2017
2295 2 2016 2139
2296 1 2017 2018
2297 1 2017 2019
2298 1 2018 2020
2299 2 2018 2140
2300 1 2019 2021
2301 2 2019 2141
2302 1 2020 2022
2303 2 2020 2142
2304 1 2021 2022
2305 2 2021 2143
2306 3 2022 2023
2307 3 2023 2024
2308 3 2023 2025
2309 1 2024 2026
2310 4 2024 2027
2311 1 2025 2028
2312 4 2025 2029
2313 1 2026 2028
2314 1 2026 2030
2315 1 2028 2031
2316 1 2030 2032
2317 2 2030 2144
2318 1 2031 2033
2319 2 2031 2145
2320 1 2032 2033
2321 1 2032 2034
2322 2 2033 2146
2323 1 2034 2035
2324 1 2034 2036
2325 1 2035 2037
2326 2 2035 2147
2327 1 2036 2038
2328 2 2036 2148
2329 1 2037 2039
2330 2 2037 2149
2331 1 2038 2039
2332 2 2038 2150
2333 3 2039 2040
2334 3 2040 2041
2335 3 2040 2042
2336 1 2041 2043
2337 4 2041 2044
2338 1 2042 2045
2339 4 2042 2046
2340 1 2043 2045
2341 1 2043 2047
2342 1 2045 2048
2343 1 2047 2049
2344 2 2047 2151
2345 1 2048 2050
2346 2 2048 2152
2347 1 2049 2050
2348 1 2049 2051
2349 2 2050 2153
2350 1 2051 2052
2351 1 2051 2053
2352 1 2052 2054
2353 2 2052 2154
2354 1 2053 2055
2355 2 2053 2155
2356 1 2054 2056
2357 2 2054 2156
2358 1 2055 2056
2359 2 2055 2157
2360 3 2056 2057
2361 3 2057 2058
2362 3 2057 2059
2363 1 2058 2060
2364 4 2058 2061
2365 1 2059 2062
2366 4 2059 2063
2367 1 2060 2062
2368 1 2060 2064
2369 1 2062 2065
2370 1 2064 2066
2371 2 2064 2158
2372 1 2065 2067
2373 2 2065 2159
2374 1 2066 2067
2375 1 2066 2068
2376 2 2067 2160
2377 1 2068 2069
2378 1 2068 2070
2379 1 2069 2071
2380 2 2069 2161
2381 1 2070 2072
2382 2 2070 2162
2383 1 2071 2073
2384 2 2071 2163
2385 1 2072 2073
2386 2 2072 2164
2387 3 2073 2074
2388 3 2074 2075
2389 3 2074 2076
2390 1 2075 2077
2391 4 2075 2078
2392 1 2076 2079
2393 4 2076 2080
2394 1 2077 2079
2395 1 2077 2081
2396 1 2079 2082
2397 1 2081 2083
2398 2 2081 2165
2399 1 2082 2084
2400 2 2082 2166
2401 1 2083 2084
2402 1 2083 2085
2403 2 2084 2167
2404 1 2085 2086
2405 1 2085 2087
2406 1 2086 2088
2407 2 2086 2168
2408 1 2087 2089
2409 2 2087 2169
2410 1 2088 2090
2411 2 2088 2170
2412 1 2089 2090
2413 2 2089 2171
2414 3 2090 2091
2415 3 2091 2092
2416 3 2091 2093
2417 1 2092 2094
2418 4 2092 2095
2419 4 2093 2096
2420 1 2093 2097
2421 1 2094 2097
2422 1 2094 2098
2423 1 2097 2099
2424 1 2098 2100
2425 2 2098 2172
2426 1 2099 2101
2427 2 2099 2173
2428 1 2100 2101
2429 2 2100 2102
2430 2 2101 2174
2431 1 2103 2105
2432 2 2103 2175
2433 1 2104 2106
2434 2 2104 2176
2435 1 2105 2107
2436 2 2105 2177
2437 1 2106 2107
2438 2 2106 2178
2439 2 2107 2108
2440 3 2179 2180
2441 3 2179 2181
2442 3 2179 2182
2443 1 2180 2345
2444 1 2180 2346
2445 1 2181 2183
2446 4 2181 2184
2447 1 2182 2185
2448 4 2182 2186
2449 1 2183 2185
2450 1 2183 2187
2451 1 2185 2188
2452 1 2187 2189
2453 2 2187 2351
2454 1 2188 2190
2455 2 2188 2352
2456 1 2189 2190
2457 1 2189 2191
2458 2 2190 2353
2459 1 2191 2192
2460 1 2191 2193
2461 1 2192 2194
2462 2 2192 2354
2463 1 2193 2195
2464 2 2193 2355
2465 1 2194 2196
2466 2 2194 2356
2467 1 2195 2196
2468 2 2195 2357
2469 3 2196 2197
2470 3 2197 2198
2471 3 2197 2199
2472 1 2198 2200
2473 4 2198 2201
2474 1 2199 2202
2475 4 2199 2203
2476 1 2200 2202
2477 1 2200 2204
2478 1 2202 2205
2479 1 2204 2206
2480 2 2204 2358
2481 1 2205 2207
2482 2 2205 2359
2483 1 2206 2207
2484 1 2206 2208
2485 2 2207 2360
2486 1 2208 2209
2487 1 2208 2210
2488 1 2209 2211
2489 2 2209 2361
2490 1 2210 2212
2491 2 2210 2362
2492 1 2211 2213
2493 2 2211 2363
2494 1 2212 2213
2495 2 2212 2364
2496 3 2213 2214
2497 3 2214 2215
2498 3 2214 2216
2499 1 2215 2217
2500 4 2215 2218
2501 1 2216 2219
2502 4 2216 2220
2503 1 2217 2219
2504 1 2217 2221
2505 1 2219 2222
2506 1 2221 2223
2507 2 2221 2365
2508 1 2222 2224
2509 2 2222 2366
2510 1 2223 2224
2511 1 2223 2225
2512 2 2224 2367
2513 1 2225 2226
2514 1 2225 2227
2515 1 2226 2228
2516 2 2226 2368
2517 1 2227 2229
2518 2 2227 2369
2519 1 2228 2230
2520 2 2228 2370
2521 1 2229 2230
2522 2 2229 2371
2523 3 2230 2231
2524 3 2231 2232
2525 3 2231 2233
2526 1 2232 2234
2527 4 2232 2235
2528 1 2233 2236
2529 4 2233 2237
2530 1 2234 2236
2531 1 2234 2238
2532 1 2236 2239
2533 1 2238 2240
2534 2 2238 2372
2535 1 2239 2241
2536 2 2239 2373
2537 1 2240 2241
2538 1 2240 2242
2539 2 2241 2374
2540 1 2242 2243
2541 1 2242 2244
2542 1 2243 2245
2543 2 2243 2375
2544 1 2244 2246
2545 2 2244 2376
2546 1 2245 2247
2547 2 2245 2377
2548 1 2246 2247
2549 2 2246 2378
2550 3 2247 2248
2551 3 2248 2249
2552 3 2248 2250
2553 1 2249 2251
2554 4 2249 2252
2555 1 2250 2253
2556 4 2250 2254
2557 1 2251 2253
2558 1 2251 2255
2559 1 2253 2256
2560 1 2255 2257
2561 2 2255 2379
2562 1 2256 2258
2563 2 2256 2380
2564 1 2257 2258
2565 1 2257 2259
2566 2 2258 2381
2567 1 2259 2260
2568 1 2259 2261
2569 1 2260 2262
2570 2 2260 2382
2571 1 2261 2263
2572 2 2261 2383
2573 1 2262 2264
2574 2 2262 2384
2575 1 2263 2264
2576 2 2263 2385
2577 3 2264 2265
2578 3 2265 2266
2579 3 2265 2267
2580 1 2266 2268
2581 4 2266 2269
2582 1 2267 2270
2583 4 2267 2271
2584 1 2268 2270
2585 1 2268 2272
2586 1 2270 2273
2587 1 2272 2274
2588 2 2272 2386
2589 1 2273 2275
2590 2 2273 2387
2591 1 2274 2275
2592 1 2274 2276
2593 2 2275 2388
2594 1 2276 2277
2595 1 2276 2278
2596 1 2277 2279
2597 2 2277 2389
2598 1 2278 2280
2599 2 2278 2390
2600 1 2279 2281
2601 2 2279 2391
2602 1 2280 2281
2603 2 2280 2392
2604 3 2281 2282
2605 3 2282 2283
2606 3 2282 2284
2607 1 2283 2285
2608 4 2283 2286
2609 1 2284 2287
2610 4 2284 2288
2611 1 2285 2287
2612 1 2285 2289
2613 1 2287 2290
2614 1 2289 2291
2615 2 2289 2393
2616 1 2290 2292
2617 2 2290 2394
2618 1 2291 2292
2619 1 2291 2293
2620 2 2292 2395
2621 1 2293 2294
2622 1 2293 2295
2623 1 2294 2296
2624 2 2294 2396
2625 1 2295 2297
2626 2 2295 2397
2627 1 2296 2298
2628 2 2296 2398
2629 1 2297 2298
2630 2 2297 2399
2631 3 2298 2299
2632 3 2299 2300
2633 3 2299 2301
2634 1 2300 2302
2635 4 2300 2303
2636 1 2301 2304
2637 4 2301 2305
2638 1 2302 2304
2639 1 2302 2306
2640 1 2304 2307
2641 1 2306 2308
2642 2 2306 2400
2643 1 2307 2309
2644 2 2307 2401
2645 1 2308 2309
2646 1 2308 2310
2647 2 2309 2402
2648 1 2310 2311
2649 1 2310 2312
2650 1 2311 2313
2651 2 2311 2403
2652 1 2312 2314
2653 2 2312 2404
2654 1 2313 2315
2655 2 2313 2405
2656 1 2314 2315
2657 2 2314 2406
2658 3 2315 2316
2659 3 2316 2317
2660 3 2316 2318
2661 1 2317 2319
2662 4 2317 2320
2663 1 2318 2321
2664 4 2318 2322
2665 1 2319 2321
2666 1 2319 2323
2667 1 2321 2324
2668 1 2323 2325
2669 2 2323 2407
2670 1 2324 2326
2671 2 2324 2408
2672 1 2325 2326
2673 1 2325 2327
2674 2 2326 2409
2675 1 2327 2328
2676 1 2327 2329
2677 1 2328 2330
2678 2 2328 2410
2679 1 2329 2331
2680 2 2329 2411
2681 1 2330 2332
2682 2 2330 2412
2683 1 2331 2332
2684 2 2331 2413
2685 3 2332 2333
2686 3 2333 2334
2687 3 2333 2335
2688 1 2334 2336
2689 4 2334 2337
2690 4 2335 2338
2691 1 2335 2339
2692 1 2336 2339
2693 1 2336 2340
2694 1 2339 2341
2695 1 2340 2342
2696 2 2340 2414
2697 1 2341 2343
2698 2 2341 2415
2699 1 2342 2343
2700 2 2342 2344
2701 2 2343 2416
2702 1 2345 2347
2703 2 2345 2417
2704 1 2346 2348
2705 2 2346 2418
2706 1 2347 2349
2707 2 2347 2419
2708 1 2348 2349
2709 2 2348 2420
2710 2 2349 2350
