LAMMPS data file: packed polymer system

2820 atoms
3210 bonds

4 atom types
5 bond types

0.000000 60.000000 xlo xhi
0.000000 60.000000 ylo yhi
0.000000 60.000000 zlo zhi

Masses

1 12.011000 # C
2 1.008000 # H
3 14.007000 # N
4 15.999000 # O

Atoms # full

1 1 3 0.000000 34.071000 10.478000 53.535000 # N
2 1 1 0.000000 33.818000 11.201000 54.755000 # C
3 1 1 0.000000 34.946000 9.461000 53.367000 # C
4 1 1 0.000000 33.500000 10.707000 52.324000 # C
5 1 1 0.000000 34.943000 9.035000 52.052000 # C
6 1 4 0.000000 35.662000 8.978000 54.289000 # O
7 1 1 0.000000 34.022000 9.837000 51.380000 # C
8 1 4 0.000000 32.653000 11.610000 52.097000 # O
9 1 1 0.000000 35.699000 8.053000 51.396000 # C
10 1 1 0.000000 33.796000 9.721000 49.999000 # C
11 1 1 0.000000 35.475000 7.942000 50.016000 # C
12 1 1 0.000000 34.567000 8.748000 49.342000 # C
13 1 1 0.000000 36.084000 7.155000 49.062000 # C
14 1 1 0.000000 34.667000 8.416000 48.004000 # C
15 1 3 0.000000 35.591000 7.431000 47.826000 # N
16 1 4 0.000000 37.007000 6.323000 49.293000 # O
17 1 4 0.000000 34.001000 8.945000 47.073000 # O
18 1 1 0.000000 36.057000 6.890000 46.574000 # C
19 1 1 0.000000 36.282000 7.734000 45.474000 # C
20 1 1 0.000000 36.390000 5.529000 46.465000 # C
21 1 1 0.000000 36.859000 7.236000 44.304000 # C
22 1 1 0.000000 36.975000 5.032000 45.294000 # C
23 1 1 0.000000 37.220000 5.881000 44.208000 # C
24 1 3 0.000000 37.897000 5.394000 43.036000 # N
25 1 1 0.000000 39.109000 4.776000 43.010000 # C
26 1 1 0.000000 37.593000 5.679000 41.747000 # C
27 1 1 0.000000 39.565000 4.664000 41.711000 # C
28 1 4 0.000000 39.752000 4.433000 44.038000 # O
29 1 1 0.000000 38.589000 5.236000 40.907000 # C
30 1 4 0.000000 36.551000 6.293000 41.383000 # O
31 1 1 0.000000 40.816000 4.271000 41.204000 # C
32 1 1 0.000000 38.777000 5.453000 39.537000 # C
33 1 1 0.000000 41.016000 4.516000 39.833000 # C
34 1 1 0.000000 40.031000 5.077000 39.033000 # C
35 1 1 0.000000 42.170000 4.503000 39.073000 # C
36 1 1 0.000000 40.625000 5.372000 37.822000 # C
37 1 3 0.000000 41.940000 5.027000 37.838000 # N
38 1 4 0.000000 43.302000 4.129000 39.487000 # O
39 1 4 0.000000 40.062000 5.985000 36.875000 # O
40 1 1 0.000000 42.930000 5.554000 36.929000 # C
41 1 1 0.000000 42.703000 5.542000 35.544000 # C
42 1 1 0.000000 44.004000 6.303000 37.436000 # C
43 1 1 0.000000 43.471000 6.351000 34.693000 # C
44 1 1 0.000000 44.753000 7.124000 36.594000 # C
45 1 1 0.000000 44.453000 7.210000 35.221000 # C
46 1 3 0.000000 44.962000 8.319000 34.446000 # N
47 1 1 0.000000 46.125000 8.991000 34.664000 # C
48 1 1 0.000000 44.181000 9.177000 33.732000 # C
49 1 1 0.000000 46.069000 10.260000 34.129000 # C
50 1 4 0.000000 47.096000 8.537000 35.330000 # O
51 1 1 0.000000 44.828000 10.376000 33.524000 # C
52 1 4 0.000000 42.982000 8.954000 33.417000 # O
53 1 1 0.000000 46.893000 11.375000 34.360000 # C
54 1 1 0.000000 44.317000 11.611000 33.093000 # C
55 1 1 0.000000 46.373000 12.613000 33.949000 # C
56 1 1 0.000000 45.134000 12.726000 33.338000 # C
57 1 1 0.000000 46.761000 13.894000 34.286000 # C
58 1 1 0.000000 44.823000 14.068000 33.335000 # C
59 1 3 0.000000 45.812000 14.793000 33.918000 # N
60 1 4 0.000000 47.793000 14.185000 34.949000 # O
61 1 4 0.000000 43.737000 14.552000 32.912000 # O
62 1 1 0.000000 45.688000 16.128000 34.453000 # C
63 1 1 0.000000 46.794000 16.994000 34.477000 # C
64 1 1 0.000000 44.509000 16.511000 35.107000 # C
65 1 1 0.000000 46.740000 18.188000 35.207000 # C
66 1 1 0.000000 44.456000 17.698000 35.841000 # C
67 1 1 0.000000 45.577000 18.536000 35.923000 # C
68 1 3 0.000000 45.591000 19.642000 36.848000 # N
69 1 1 0.000000 46.554000 19.884000 37.775000 # C
70 1 1 0.000000 44.566000 20.488000 37.137000 # C
71 1 1 0.000000 46.148000 20.873000 38.646000 # C
72 1 4 0.000000 47.636000 19.245000 37.863000 # O
73 1 1 0.000000 44.877000 21.262000 38.242000 # C
74 1 4 0.000000 43.478000 20.531000 36.504000 # O
75 1 1 0.000000 46.745000 21.363000 39.817000 # C
76 1 1 0.000000 44.108000 22.175000 38.980000 # C
77 1 1 0.000000 45.976000 22.270000 40.557000 # C
78 1 1 0.000000 44.707000 22.660000 40.155000 # C
79 1 1 0.000000 46.190000 22.833000 41.797000 # C
80 1 1 0.000000 44.206000 23.448000 41.171000 # C
81 1 3 0.000000 45.108000 23.557000 42.185000 # N
82 1 4 0.000000 47.218000 22.649000 42.505000 # O
83 1 4 0.000000 43.068000 23.989000 41.166000 # O
84 1 1 0.000000 44.894000 24.158000 43.481000 # C
85 1 1 0.000000 43.642000 24.045000 44.113000 # C
86 1 1 0.000000 45.951000 24.800000 44.163000 # C
87 1 1 0.000000 43.454000 24.542000 45.402000 # C
88 1 1 0.000000 45.761000 25.283000 45.466000 # C
89 1 1 0.000000 44.512000 25.144000 46.092000 # C
90 1 3 0.000000 44.338000 25.493000 47.472000 # N
91 1 1 0.000000 43.603000 26.537000 47.926000 # C
92 1 1 0.000000 44.386000 24.600000 48.488000 # C
93 1 1 0.000000 43.202000 26.321000 49.229000 # C
94 1 4 0.000000 43.239000 27.508000 47.210000 # O
95 1 1 0.000000 43.698000 25.076000 49.586000 # C
96 1 4 0.000000 44.885000 23.449000 48.392000 # O
97 1 1 0.000000 42.234000 26.989000 49.999000 # C
98 1 1 0.000000 43.248000 24.390000 50.721000 # C
99 1 1 0.000000 41.770000 26.291000 51.125000 # C
100 1 1 0.000000 42.251000 25.035000 51.465000 # C
101 1 1 0.000000 40.615000 26.471000 51.865000 # C
102 1 1 0.000000 41.362000 24.505000 52.374000 # C
103 1 3 0.000000 40.339000 25.367000 52.617000 # N
104 1 4 0.000000 39.860000 27.478000 51.783000 # O
105 1 4 0.000000 41.407000 23.319000 52.806000 # O
106 1 1 0.000000 39.021000 24.929000 53.016000 # C
107 1 1 0.000000 38.855000 24.031000 54.086000 # C
108 1 1 0.000000 37.935000 25.151000 52.152000 # C
109 1 1 0.000000 37.690000 23.253000 54.186000 # C
110 1 1 0.000000 36.785000 24.374000 52.244000 # C
111 1 1 0.000000 36.681000 23.356000 53.210000 # C
112 1 3 0.000000 35.772000 22.257000 52.977000 # N
113 1 1 0.000000 34.599000 22.349000 52.291000 # C
114 1 1 0.000000 36.216000 20.993000 52.748000 # C
115 1 1 0.000000 34.342000 21.187000 51.583000 # C
116 1 4 0.000000 33.912000 23.400000 52.208000 # O
117 1 1 0.000000 35.383000 20.323000 51.884000 # C
118 1 4 0.000000 37.330000 20.554000 53.141000 # O
119 1 1 0.000000 33.514000 20.995000 50.461000 # C
120 1 1 0.000000 35.682000 19.211000 51.083000 # C
121 1 1 0.000000 33.858000 19.916000 49.627000 # C
122 1 1 0.000000 34.908000 19.063000 49.928000 # C
123 1 1 0.000000 33.560000 19.705000 48.296000 # C
124 1 1 0.000000 35.210000 18.386000 48.765000 # C
125 1 3 0.000000 34.397000 18.778000 47.752000 # N
126 1 4 0.000000 32.689000 20.345000 47.642000 # O
127 1 4 0.000000 36.204000 17.624000 48.622000 # O
128 1 1 0.000000 34.667000 18.569000 46.346000 # C
129 1 1 0.000000 35.144000 17.330000 45.887000 # C
130 1 1 0.000000 34.617000 19.648000 45.442000 # C
131 1 1 0.000000 35.647000 17.196000 44.585000 # C
132 1 1 0.000000 35.095000 19.506000 44.137000 # C
133 1 1 0.000000 35.658000 18.290000 43.705000 # C
134 1 3 0.000000 36.255000 18.186000 42.393000 # N
135 1 1 0.000000 36.932000 19.157000 41.716000 # C
136 1 1 0.000000 36.210000 17.121000 41.552000 # C
137 1 1 0.000000 37.297000 18.719000 40.462000 # C
138 1 4 0.000000 37.198000 20.298000 42.183000 # O
139 1 1 0.000000 36.843000 17.412000 40.361000 # C
140 1 4 0.000000 35.609000 16.040000 41.805000 # O
141 1 1 0.000000 37.910000 19.388000 39.386000 # C
142 1 1 0.000000 36.972000 16.668000 39.180000 # C
143 1 1 0.000000 38.023000 18.647000 38.199000 # C
144 1 1 0.000000 37.584000 17.336000 38.104000 # C
145 1 1 0.000000 38.392000 19.028000 36.922000 # C
146 1 1 0.000000 37.707000 16.977000 36.779000 # C
147 1 3 0.000000 38.203000 18.008000 36.045000 # N
148 1 4 0.000000 38.786000 20.178000 36.591000 # O
149 1 4 0.000000 37.320000 15.881000 36.288000 # O
150 1 1 0.000000 38.080000 18.115000 34.611000 # C
151 1 1 0.000000 38.509000 17.068000 33.778000 # C
152 1 1 0.000000 37.279000 19.127000 34.067000 # C
153 1 1 0.000000 38.021000 16.961000 32.470000 # C
154 1 1 0.000000 36.757000 18.994000 32.783000 # C
155 1 1 0.000000 37.052000 17.864000 31.996000 # C
156 1 3 0.000000 36.151000 17.473000 30.930000 # N
157 1 1 0.000000 35.325000 18.319000 30.249000 # C
158 1 1 0.000000 35.503000 16.275000 30.925000 # C
159 1 1 0.000000 34.147000 17.692000 29.894000 # C
160 1 4 0.000000 35.553000 19.549000 30.080000 # O
161 1 1 0.000000 34.271000 16.377000 30.319000 # C
162 1 4 0.000000 35.904000 15.253000 31.546000 # O
163 1 1 0.000000 32.891000 18.273000 29.639000 # C
164 1 1 0.000000 33.162000 15.550000 30.519000 # C
165 1 1 0.000000 31.776000 17.469000 29.926000 # C
166 1 1 0.000000 31.912000 16.156000 30.357000 # C
167 1 1 0.000000 30.507000 17.864000 30.302000 # C
168 1 1 0.000000 30.733000 15.826000 30.990000 # C
169 1 3 0.000000 29.869000 16.876000 30.990000 # N
170 1 4 0.000000 30.047000 19.027000 30.144000 # O
171 1 4 0.000000 30.553000 14.755000 31.634000 # O
172 1 1 0.000000 28.886000 17.080000 32.037000 # C
173 1 1 0.000000 28.939000 18.245000 32.830000 # C
174 1 1 0.000000 28.080000 16.012000 32.479000 # C
175 1 1 0.000000 28.338000 18.277000 34.086000 # C
176 1 1 0.000000 27.502000 16.037000 33.756000 # C
177 1 1 0.000000 27.692000 17.142000 34.596000 # C
178 1 3 0.000000 27.450000 17.048000 36.015000 # N
179 1 1 0.000000 28.348000 17.363000 36.982000 # C
180 1 1 0.000000 26.371000 16.526000 36.657000 # C
181 1 1 0.000000 27.847000 17.061000 38.221000 # C
182 1 4 0.000000 29.504000 17.818000 36.763000 # O
183 1 1 0.000000 26.579000 16.530000 38.028000 # C
184 1 4 0.000000 25.338000 16.099000 36.075000 # O
185 1 1 0.000000 28.435000 17.177000 39.484000 # C
186 1 1 0.000000 25.785000 16.092000 39.106000 # C
187 1 1 0.000000 27.656000 16.726000 40.554000 # C
188 1 1 0.000000 26.381000 16.203000 40.379000 # C
189 1 1 0.000000 27.943000 16.650000 41.897000 # C
190 1 1 0.000000 25.947000 15.833000 41.643000 # C
191 1 3 0.000000 26.902000 16.106000 42.576000 # N
192 1 4 0.000000 29.042000 16.982000 42.420000 # O
193 1 4 0.000000 24.825000 15.326000 41.906000 # O
194 1 1 0.000000 26.873000 15.825000 43.988000 # C
195 1 1 0.000000 26.427000 14.581000 44.468000 # C
196 1 1 0.000000 27.393000 16.762000 44.898000 # C
197 1 1 0.000000 26.536000 14.269000 45.830000 # C
198 1 1 0.000000 27.503000 16.446000 46.254000 # C
199 1 1 0.000000 27.096000 15.191000 46.730000 # C
200 1 3 0.000000 27.290000 14.845000 48.113000 # N
201 1 1 0.000000 28.407000 15.045000 48.854000 # C
202 1 1 0.000000 26.381000 14.274000 48.948000 # C
203 1 1 0.000000 28.221000 14.604000 50.145000 # C
204 1 4 0.000000 29.476000 15.552000 48.412000 # O
205 1 4 0.000000 25.208000 13.971000 48.618000 # O
206 1 1 0.000000 26.925000 14.107000 50.208000 # C
207 1 1 0.000000 29.075000 14.616000 51.260000 # C
208 1 1 0.000000 26.379000 13.588000 51.390000 # C
209 1 1 0.000000 28.528000 14.103000 52.447000 # C
210 1 1 0.000000 27.232000 13.603000 52.508000 # C
211 1 1 0.000000 29.050000 13.980000 53.722000 # C
212 1 1 0.000000 27.033000 13.195000 53.812000 # C
213 1 4 0.000000 30.210000 14.330000 54.078000 # O
214 1 3 0.000000 28.140000 13.426000 54.556000 # N
215 1 4 0.000000 25.973000 12.685000 54.267000 # O
216 1 2 0.000000 28.261000 13.229000 55.575000 # H
217 1 1 0.000000 32.533000 11.200000 55.327000 # C
218 1 1 0.000000 34.869000 11.872000 55.404000 # C
219 1 1 0.000000 32.311000 11.844000 56.549000 # C
220 1 1 0.000000 34.638000 12.524000 56.620000 # C
221 1 1 0.000000 33.363000 12.505000 57.200000 # C
222 1 2 0.000000 33.190000 13.001000 58.147000 # H
223 1 2 0.000000 36.430000 7.441000 51.912000 # H
224 1 2 0.000000 33.101000 10.359000 49.470000 # H
225 1 2 0.000000 36.056000 8.790000 45.534000 # H
226 1 2 0.000000 36.210000 4.854000 47.290000 # H
227 1 2 0.000000 37.061000 7.918000 43.485000 # H
228 1 2 0.000000 37.246000 3.986000 45.233000 # H
229 1 2 0.000000 41.613000 3.905000 41.838000 # H
230 1 2 0.000000 38.048000 5.978000 38.937000 # H
231 1 2 0.000000 41.882000 4.966000 35.132000 # H
232 1 2 0.000000 44.182000 6.353000 38.501000 # H
233 1 2 0.000000 43.239000 6.368000 33.638000 # H
234 1 2 0.000000 45.481000 7.784000 37.046000 # H
235 1 2 0.000000 47.798000 11.303000 34.951000 # H
236 1 2 0.000000 43.303000 11.718000 32.719000 # H
237 1 2 0.000000 47.713000 16.720000 33.977000 # H
238 1 2 0.000000 43.651000 15.845000 35.133000 # H
239 1 2 0.000000 47.617000 18.824000 35.251000 # H
240 1 2 0.000000 43.563000 17.917000 36.413000 # H
241 1 2 0.000000 47.713000 21.022000 40.158000 # H
242 1 2 0.000000 43.099000 22.444000 38.694000 # H
243 1 2 0.000000 42.820000 23.531000 43.634000 # H
244 1 2 0.000000 46.917000 24.917000 43.689000 # H
245 1 2 0.000000 42.492000 24.425000 45.890000 # H
246 1 2 0.000000 46.587000 25.752000 45.992000 # H
247 1 2 0.000000 41.759000 27.900000 49.659000 # H
248 1 2 0.000000 43.528000 23.364000 50.918000 # H
249 1 2 0.000000 39.672000 23.856000 54.776000 # H
250 1 2 0.000000 38.029000 25.811000 51.301000 # H
251 1 2 0.000000 37.628000 22.489000 54.948000 # H
252 1 2 0.000000 36.053000 24.472000 51.457000 # H
253 1 2 0.000000 32.805000 21.751000 50.145000 # H
254 1 2 0.000000 36.589000 18.636000 51.234000 # H
255 1 2 0.000000 35.179000 16.474000 46.552000 # H
256 1 2 0.000000 34.277000 20.623000 45.760000 # H
257 1 2 0.000000 36.076000 16.245000 44.286000 # H
258 1 2 0.000000 35.054000 20.361000 43.473000 # H
259 1 2 0.000000 38.214000 20.426000 39.448000 # H
260 1 2 0.000000 36.562000 15.671000 39.086000 # H
261 1 2 0.000000 39.143000 16.283000 34.170000 # H
262 1 2 0.000000 36.932000 19.943000 34.683000 # H
263 1 2 0.000000 38.303000 16.105000 31.872000 # H
264 1 2 0.000000 36.009000 19.709000 32.477000 # H
265 1 2 0.000000 32.791000 19.340000 29.486000 # H
266 1 2 0.000000 33.262000 14.597000 31.016000 # H
267 1 2 0.000000 29.558000 19.086000 32.553000 # H
268 1 2 0.000000 27.995000 15.112000 31.880000 # H
269 1 2 0.000000 28.474000 19.152000 34.703000 # H
270 1 2 0.000000 27.015000 15.148000 34.130000 # H
271 1 2 0.000000 29.434000 17.569000 39.627000 # H
272 1 2 0.000000 24.797000 15.671000 38.968000 # H
273 1 2 0.000000 26.043000 13.836000 43.784000 # H
274 1 2 0.000000 27.724000 17.731000 44.550000 # H
275 1 2 0.000000 26.222000 13.293000 46.172000 # H
276 1 2 0.000000 27.915000 17.182000 46.933000 # H
277 1 2 0.000000 30.084000 15.003000 51.212000 # H
278 1 2 0.000000 25.372000 13.201000 51.444000 # H
279 1 2 0.000000 31.714000 10.680000 54.838000 # H
280 1 2 0.000000 35.859000 11.884000 54.964000 # H
281 1 2 0.000000 31.327000 11.828000 56.997000 # H
282 1 2 0.000000 35.449000 13.035000 57.119000 # H
283 2 3 0.000000 37.479000 14.143000 47.861000 # N
284 2 1 0.000000 36.400000 14.208000 48.813000 # C
285 2 1 0.000000 38.740000 13.717000 48.098000 # C
286 2 1 0.000000 37.434000 14.525000 46.558000 # C
287 2 1 0.000000 39.509000 13.827000 46.955000 # C
288 2 4 0.000000 39.148000 13.286000 49.213000 # O
289 2 1 0.000000 38.677000 14.351000 45.968000 # C
290 2 4 0.000000 36.417000 15.007000 45.993000 # O
291 2 1 0.000000 40.865000 13.554000 46.723000 # C
292 2 1 0.000000 39.141000 14.650000 44.677000 # C
293 2 1 0.000000 41.329000 13.857000 45.434000 # C
294 2 1 0.000000 40.504000 14.391000 44.453000 # C
295 2 1 0.000000 42.594000 13.793000 44.891000 # C
296 2 1 0.000000 41.308000 14.630000 43.354000 # C
297 2 3 0.000000 42.591000 14.256000 43.613000 # N
298 2 4 0.000000 43.626000 13.400000 45.506000 # O
299 2 4 0.000000 40.915000 15.125000 42.262000 # O
300 2 1 0.000000 43.741000 14.442000 42.764000 # C
301 2 1 0.000000 43.902000 15.633000 42.036000 # C
302 2 1 0.000000 44.767000 13.482000 42.730000 # C
303 2 1 0.000000 45.076000 15.872000 41.318000 # C
304 2 1 0.000000 45.946000 13.727000 42.017000 # C
305 2 1 0.000000 46.113000 14.925000 41.311000 # C
306 2 3 0.000000 47.355000 15.216000 40.648000 # N
307 2 1 0.000000 48.589000 15.215000 41.221000 # C
308 2 1 0.000000 47.508000 15.785000 39.427000 # C
309 2 1 0.000000 49.519000 15.773000 40.365000 # C
310 2 4 0.000000 48.823000 14.832000 42.399000 # O
311 2 1 0.000000 48.824000 16.129000 39.217000 # C
312 2 4 0.000000 46.562000 15.992000 38.618000 # O
313 2 1 0.000000 50.858000 16.147000 40.575000 # C
314 2 1 0.000000 49.408000 16.876000 38.187000 # C
315 2 1 0.000000 51.435000 16.922000 39.553000 # C
316 2 1 0.000000 50.739000 17.264000 38.403000 # C
317 2 1 0.000000 52.602000 17.663000 39.532000 # C
318 2 1 0.000000 51.513000 18.188000 37.730000 # C
319 2 3 0.000000 52.658000 18.444000 38.419000 # N
320 2 4 0.000000 53.464000 17.676000 40.454000 # O
321 2 4 0.000000 51.158000 18.802000 36.689000 # O
322 2 1 0.000000 53.472000 19.621000 38.233000 # C
323 2 1 0.000000 53.883000 20.008000 36.947000 # C
324 2 1 0.000000 53.647000 20.516000 39.300000 # C
325 2 1 0.000000 54.358000 21.307000 36.716000 # C
326 2 1 0.000000 54.098000 21.815000 39.068000 # C
327 2 1 0.000000 54.396000 22.249000 37.762000 # C
328 2 3 0.000000 54.488000 23.664000 37.482000 # N
329 2 1 0.000000 54.888000 24.634000 38.348000 # C
330 2 1 0.000000 53.745000 24.308000 36.540000 # C
331 2 1 0.000000 54.380000 25.863000 37.981000 # C
332 2 4 0.000000 55.572000 24.424000 39.388000 # O
333 2 1 0.000000 53.656000 25.655000 36.818000 # C
334 2 4 0.000000 53.116000 23.732000 35.612000 # O
335 2 1 0.000000 54.286000 27.057000 38.715000 # C
336 2 1 0.000000 52.790000 26.627000 36.291000 # C
337 2 1 0.000000 53.404000 28.021000 38.200000 # C
338 2 1 0.000000 52.685000 27.814000 37.034000 # C
339 2 1 0.000000 52.856000 29.135000 38.805000 # C
340 2 1 0.000000 51.733000 28.808000 36.983000 # C
341 2 3 0.000000 51.825000 29.620000 38.066000 # N
342 2 4 0.000000 53.184000 29.574000 39.941000 # O
343 2 4 0.000000 50.848000 28.909000 36.088000 # O
344 2 1 0.000000 50.792000 30.495000 38.568000 # C
345 2 1 0.000000 51.125000 31.673000 39.257000 # C
346 2 1 0.000000 49.451000 30.090000 38.518000 # C
347 2 1 0.000000 50.139000 32.390000 39.947000 # C
348 2 1 0.000000 48.468000 30.801000 39.210000 # C
349 2 1 0.000000 48.803000 31.941000 39.954000 # C
350 2 3 0.000000 47.835000 32.543000 40.836000 # N
351 2 1 0.000000 48.028000 32.819000 42.152000 # C
352 2 1 0.000000 46.506000 32.720000 40.605000 # C
353 2 1 0.000000 46.837000 33.168000 42.753000 # C
354 2 4 0.000000 49.131000 32.706000 42.750000 # O
355 2 1 0.000000 45.861000 33.105000 41.767000 # C
356 2 4 0.000000 45.945000 32.526000 39.494000 # O
357 2 1 0.000000 46.529000 33.411000 44.100000 # C
358 2 1 0.000000 44.499000 33.285000 42.056000 # C
359 2 1 0.000000 45.168000 33.586000 44.389000 # C
360 2 1 0.000000 44.192000 33.524000 43.406000 # C
361 2 1 0.000000 44.511000 33.706000 45.595000 # C
362 2 1 0.000000 42.981000 33.613000 44.060000 # C
363 2 3 0.000000 43.166000 33.721000 45.405000 # N
364 2 4 0.000000 45.073000 33.730000 46.724000 # O
365 2 4 0.000000 41.855000 33.592000 43.494000 # O
366 2 1 0.000000 42.151000 33.675000 46.431000 # C
367 2 1 0.000000 41.034000 32.833000 46.280000 # C
368 2 1 0.000000 42.298000 34.411000 47.627000 # C
369 2 1 0.000000 40.097000 32.712000 47.306000 # C
370 2 1 0.000000 41.361000 34.274000 48.662000 # C
371 2 1 0.000000 40.263000 33.413000 48.505000 # C
372 2 3 0.000000 39.379000 33.142000 49.601000 # N
373 2 1 0.000000 38.088000 33.547000 49.681000 # C
374 2 1 0.000000 39.479000 32.055000 50.401000 # C
375 2 1 0.000000 37.375000 32.736000 50.540000 # C
376 2 4 0.000000 37.590000 34.461000 48.970000 # O
377 2 1 0.000000 38.266000 31.776000 50.996000 # C
378 2 4 0.000000 40.508000 31.335000 50.486000 # O
379 2 1 0.000000 35.987000 32.617000 50.727000 # C
380 2 1 0.000000 37.839000 30.611000 51.647000 # C
381 2 1 0.000000 35.561000 31.440000 51.362000 # C
382 2 1 0.000000 36.453000 30.470000 51.795000 # C
383 2 1 0.000000 34.312000 30.845000 51.380000 # C
384 2 1 0.000000 35.714000 29.333000 52.034000 # C
385 2 3 0.000000 34.397000 29.540000 51.766000 # N
386 2 4 0.000000 33.247000 31.401000 50.995000 # O
387 2 4 0.000000 36.211000 28.206000 52.317000 # O
388 2 1 0.000000 33.503000 28.481000 51.355000 # C
389 2 1 0.000000 33.428000 27.281000 52.085000 # C
390 2 1 0.000000 32.942000 28.520000 50.067000 # C
391 2 1 0.000000 32.953000 26.108000 51.476000 # C
392 2 1 0.000000 32.481000 27.356000 49.460000 # C
393 2 1 0.000000 32.559000 26.119000 50.125000 # C
394 2 3 0.000000 32.582000 24.902000 49.345000 # N
395 2 1 0.000000 31.955000 24.732000 48.148000 # C
396 2 1 0.000000 33.686000 24.112000 49.279000 # C
397 2 1 0.000000 32.686000 23.904000 47.313000 # C
398 2 4 0.000000 30.916000 25.354000 47.803000 # O
399 2 1 0.000000 33.793000 23.510000 48.047000 # C
400 2 4 0.000000 34.579000 24.071000 50.167000 # O
401 2 1 0.000000 32.644000 23.796000 45.910000 # C
402 2 1 0.000000 34.944000 22.990000 47.437000 # C
403 2 1 0.000000 33.824000 23.333000 45.300000 # C
404 2 1 0.000000 34.932000 22.953000 46.039000 # C
405 2 1 0.000000 34.266000 23.505000 44.003000 # C
406 2 1 0.000000 35.997000 22.925000 45.166000 # C
407 2 3 0.000000 35.606000 23.272000 43.913000 # N
408 2 4 0.000000 33.550000 23.908000 43.044000 # O
409 2 4 0.000000 37.198000 22.754000 45.511000 # O
410 2 1 0.000000 36.495000 23.710000 42.860000 # C
411 2 1 0.000000 37.705000 23.036000 42.620000 # C
412 2 1 0.000000 36.246000 24.912000 42.170000 # C
413 2 1 0.000000 38.681000 23.596000 41.785000 # C
414 2 1 0.000000 37.211000 25.456000 41.317000 # C
415 2 1 0.000000 38.460000 24.828000 41.149000 # C
416 2 3 0.000000 39.494000 25.456000 40.359000 # N
417 2 1 0.000000 39.743000 26.791000 40.239000 # C
418 2 1 0.000000 40.383000 24.845000 39.534000 # C
419 2 1 0.000000 40.764000 27.023000 39.343000 # C
420 2 4 0.000000 39.129000 27.690000 40.874000 # O
421 2 1 0.000000 41.180000 25.776000 38.899000 # C
422 2 4 0.000000 40.423000 23.600000 39.328000 # O
423 2 1 0.000000 41.295000 28.220000 38.827000 # C
424 2 1 0.000000 42.163000 25.627000 37.911000 # C
425 2 1 0.000000 42.267000 28.069000 37.826000 # C
426 2 1 0.000000 42.693000 26.823000 37.395000 # C
427 2 1 0.000000 42.856000 28.995000 36.985000 # C
428 2 1 0.000000 43.522000 27.045000 36.317000 # C
429 2 3 0.000000 43.630000 28.374000 36.058000 # N
430 2 4 0.000000 42.659000 30.239000 37.020000 # O
431 2 4 0.000000 44.033000 26.140000 35.600000 # O
432 2 1 0.000000 44.072000 28.921000 34.798000 # C
433 2 1 0.000000 45.296000 28.521000 34.236000 # C
434 2 1 0.000000 43.161000 29.626000 34.000000 # C
435 2 1 0.000000 45.533000 28.692000 32.867000 # C
436 2 1 0.000000 43.377000 29.752000 32.631000 # C
437 2 1 0.000000 44.529000 29.210000 32.028000 # C
438 2 3 0.000000 44.518000 28.885000 30.616000 # N
439 2 1 0.000000 43.735000 29.489000 29.677000 # C
440 2 1 0.000000 44.694000 27.613000 30.159000 # C
441 2 1 0.000000 43.356000 28.597000 28.691000 # C
442 2 4 0.000000 43.306000 30.672000 29.765000 # O
443 2 1 0.000000 43.984000 27.399000 28.999000 # C
444 2 4 0.000000 45.285000 26.706000 30.805000 # O
445 2 1 0.000000 42.226000 28.650000 27.856000 # C
446 2 1 0.000000 43.536000 26.174000 28.499000 # C
447 2 1 0.000000 41.725000 27.409000 27.428000 # C
448 2 1 0.000000 42.357000 26.215000 27.746000 # C
449 2 1 0.000000 40.426000 27.076000 27.098000 # C
450 2 1 0.000000 41.411000 25.222000 27.617000 # C
451 2 3 0.000000 40.209000 25.739000 27.246000 # N
452 2 4 0.000000 39.524000 27.912000 26.822000 # O
453 2 4 0.000000 41.593000 24.022000 27.966000 # O
454 2 1 0.000000 38.947000 25.127000 27.616000 # C
455 2 1 0.000000 38.030000 25.842000 28.413000 # C
456 2 1 0.000000 38.752000 23.740000 27.461000 # C
457 2 1 0.000000 37.055000 25.172000 29.148000 # C
458 2 1 0.000000 37.789000 23.066000 28.225000 # C
459 2 1 0.000000 36.985000 23.772000 29.130000 # C
460 2 3 0.000000 36.275000 23.088000 30.183000 # N
461 2 1 0.000000 36.365000 23.384000 31.504000 # C
462 2 1 0.000000 35.501000 21.973000 30.098000 # C
463 2 1 0.000000 35.651000 22.482000 32.249000 # C
464 2 4 0.000000 37.057000 24.325000 31.980000 # O
465 2 1 0.000000 35.088000 21.577000 31.361000 # C
466 2 4 0.000000 35.215000 21.390000 29.018000 # O
467 2 1 0.000000 35.500000 22.376000 33.635000 # C
468 2 1 0.000000 34.300000 20.496000 31.801000 # C
469 2 1 0.000000 34.734000 21.294000 34.076000 # C
470 2 1 0.000000 34.153000 20.386000 33.199000 # C
471 2 1 0.000000 34.432000 20.873000 35.350000 # C
472 2 1 0.000000 33.515000 19.447000 33.995000 # C
473 2 3 0.000000 33.684000 19.742000 35.314000 # N
474 2 4 0.000000 34.843000 21.425000 36.408000 # O
475 2 4 0.000000 32.858000 18.460000 33.569000 # O
476 2 1 0.000000 33.233000 18.995000 36.459000 # C
477 2 1 0.000000 33.382000 17.598000 36.514000 # C
478 2 1 0.000000 32.734000 19.672000 37.585000 # C
479 2 1 0.000000 33.071000 16.899000 37.688000 # C
480 2 1 0.000000 32.428000 18.973000 38.754000 # C
481 2 1 0.000000 32.612000 17.584000 38.824000 # C
482 2 3 0.000000 32.373000 16.885000 40.059000 # N
483 2 1 0.000000 32.779000 17.256000 41.298000 # C
484 2 1 0.000000 31.672000 15.731000 40.223000 # C
485 2 1 0.000000 32.350000 16.352000 42.243000 # C
486 2 4 0.000000 33.471000 18.284000 41.544000 # O
487 2 4 0.000000 31.111000 15.105000 39.289000 # O
488 2 1 0.000000 31.643000 15.373000 41.557000 # C
489 2 1 0.000000 32.511000 16.323000 43.638000 # C
490 2 1 0.000000 31.037000 14.290000 42.211000 # C
491 2 1 0.000000 31.900000 15.243000 44.296000 # C
492 2 1 0.000000 31.195000 14.262000 43.608000 # C
493 2 1 0.000000 31.824000 14.907000 45.636000 # C
494 2 1 0.000000 30.732000 13.376000 44.560000 # C
495 2 4 0.000000 32.340000 15.558000 46.587000 # O
496 2 3 0.000000 31.113000 13.767000 45.799000 # N
497 2 4 0.000000 30.044000 12.345000 44.329000 # O
498 2 2 0.000000 30.890000 13.291000 46.702000 # H
499 2 1 0.000000 35.223000 13.468000 48.604000 # C
500 2 1 0.000000 36.541000 14.978000 49.980000 # C
501 2 1 0.000000 34.209000 13.480000 49.568000 # C
502 2 1 0.000000 35.519000 14.996000 50.935000 # C
503 2 1 0.000000 34.355000 14.241000 50.736000 # C
504 2 2 0.000000 33.570000 14.247000 51.483000 # H
505 2 2 0.000000 41.520000 13.165000 47.493000 # H
506 2 2 0.000000 38.504000 15.081000 43.917000 # H
507 2 2 0.000000 43.139000 16.401000 42.058000 # H
508 2 2 0.000000 44.660000 12.549000 43.267000 # H
509 2 2 0.000000 45.192000 16.818000 40.800000 # H
510 2 2 0.000000 46.736000 12.987000 42.018000 # H
511 2 2 0.000000 51.379000 15.949000 41.502000 # H
512 2 2 0.000000 48.836000 17.222000 37.339000 # H
513 2 2 0.000000 53.761000 19.329000 36.110000 # H
514 2 2 0.000000 53.312000 20.254000 40.295000 # H
515 2 2 0.000000 54.613000 21.599000 35.707000 # H
516 2 2 0.000000 54.089000 22.510000 39.896000 # H
517 2 2 0.000000 54.746000 27.165000 39.690000 # H
518 2 2 0.000000 52.142000 26.426000 35.444000 # H
519 2 2 0.000000 52.153000 32.005000 39.306000 # H
520 2 2 0.000000 49.172000 29.166000 38.021000 # H
521 2 2 0.000000 50.420000 33.273000 40.510000 # H
522 2 2 0.000000 47.459000 30.407000 39.232000 # H
523 2 2 0.000000 47.282000 33.410000 44.876000 # H
524 2 2 0.000000 43.731000 33.190000 41.298000 # H
525 2 2 0.000000 40.906000 32.229000 45.391000 # H
526 2 2 0.000000 43.138000 35.081000 47.757000 # H
527 2 2 0.000000 39.253000 32.039000 47.189000 # H
528 2 2 0.000000 41.497000 34.824000 49.588000 # H
529 2 2 0.000000 35.285000 33.301000 50.268000 # H
530 2 2 0.000000 38.519000 29.800000 51.872000 # H
531 2 2 0.000000 33.838000 27.231000 53.088000 # H
532 2 2 0.000000 33.005000 29.413000 49.462000 # H
533 2 2 0.000000 33.007000 25.173000 52.016000 # H
534 2 2 0.000000 32.215000 27.412000 48.416000 # H
535 2 2 0.000000 31.845000 24.244000 45.332000 # H
536 2 2 0.000000 35.858000 22.834000 48.000000 # H
537 2 2 0.000000 37.920000 22.098000 43.121000 # H
538 2 2 0.000000 35.339000 25.472000 42.341000 # H
539 2 2 0.000000 39.634000 23.086000 41.679000 # H
540 2 2 0.000000 36.991000 26.390000 40.814000 # H
541 2 2 0.000000 40.930000 29.193000 39.134000 # H
542 2 2 0.000000 42.440000 24.654000 37.524000 # H
543 2 2 0.000000 46.024000 27.990000 34.835000 # H
544 2 2 0.000000 42.211000 29.945000 34.404000 # H
545 2 2 0.000000 46.450000 28.305000 32.439000 # H
546 2 2 0.000000 42.568000 30.146000 32.037000 # H
547 2 2 0.000000 41.638000 29.554000 27.768000 # H
548 2 2 0.000000 43.921000 25.241000 28.885000 # H
549 2 2 0.000000 38.143000 26.902000 28.587000 # H
550 2 2 0.000000 39.423000 23.164000 26.833000 # H
551 2 2 0.000000 36.428000 25.741000 29.817000 # H
552 2 2 0.000000 37.759000 21.987000 28.199000 # H
553 2 2 0.000000 35.962000 23.071000 34.325000 # H
554 2 2 0.000000 33.859000 19.780000 31.118000 # H
555 2 2 0.000000 33.785000 17.057000 35.667000 # H
556 2 2 0.000000 32.595000 20.744000 37.556000 # H
557 2 2 0.000000 33.228000 15.830000 37.720000 # H
558 2 2 0.000000 32.052000 19.520000 39.610000 # H
559 2 2 0.000000 33.062000 17.085000 44.173000 # H
560 2 2 0.000000 30.485000 13.527000 41.682000 # H
561 2 2 0.000000 35.105000 12.864000 47.709000 # H
562 2 2 0.000000 37.442000 15.559000 50.143000 # H
563 2 2 0.000000 33.312000 12.896000 49.415000 # H
564 2 2 0.000000 35.632000 15.585000 51.834000 # H
565 3 3 0.000000 55.073000 15.223000 53.341000 # N
566 3 1 0.000000 55.168000 15.925000 54.594000 # C
567 3 1 0.000000 56.009000 14.413000 52.796000 # C
568 3 1 0.000000 54.038000 15.270000 52.462000 # C
569 3 1 0.000000 55.583000 13.941000 51.569000 # C
570 3 4 0.000000 57.116000 14.138000 53.340000 # O
571 3 1 0.000000 54.324000 14.494000 51.349000 # C
572 3 4 0.000000 52.996000 15.957000 52.627000 # O
573 3 1 0.000000 56.215000 13.119000 50.625000 # C
574 3 1 0.000000 53.605000 14.272000 50.164000 # C
575 3 1 0.000000 55.498000 12.902000 49.438000 # C
576 3 1 0.000000 54.247000 13.462000 49.213000 # C
577 3 1 0.000000 55.839000 12.226000 48.287000 # C
578 3 1 0.000000 53.885000 13.102000 47.928000 # C
579 3 3 0.000000 54.854000 12.334000 47.357000 # N
580 3 4 0.000000 56.936000 11.625000 48.099000 # O
581 3 4 0.000000 52.809000 13.433000 47.359000 # O
582 3 1 0.000000 54.897000 11.854000 45.999000 # C
583 3 1 0.000000 54.485000 12.679000 44.939000 # C
584 3 1 0.000000 55.447000 10.595000 45.705000 # C
585 3 1 0.000000 54.649000 12.267000 43.615000 # C
586 3 1 0.000000 55.618000 10.187000 44.377000 # C
587 3 1 0.000000 55.228000 11.021000 43.322000 # C
588 3 3 0.000000 55.480000 10.643000 41.958000 # N
589 3 1 0.000000 56.687000 10.301000 41.431000 # C
590 3 1 0.000000 54.640000 10.798000 40.905000 # C
591 3 1 0.000000 56.610000 10.236000 40.053000 # C
592 3 4 0.000000 57.739000 10.151000 42.108000 # O
593 3 1 0.000000 55.298000 10.547000 39.723000 # C
594 3 4 0.000000 53.434000 11.155000 41.007000 # O
595 3 1 0.000000 57.615000 10.102000 39.079000 # C
596 3 1 0.000000 54.882000 10.740000 38.400000 # C
597 3 1 0.000000 57.203000 10.325000 37.752000 # C
598 3 1 0.000000 55.888000 10.624000 37.429000 # C
599 3 1 0.000000 57.940000 10.530000 36.601000 # C
600 3 1 0.000000 55.880000 10.988000 36.096000 # C
601 3 3 0.000000 57.137000 10.938000 35.581000 # N
602 3 4 0.000000 59.195000 10.429000 36.521000 # O
603 3 4 0.000000 54.873000 11.423000 35.476000 # O
604 3 1 0.000000 57.552000 11.628000 34.382000 # C
605 3 1 0.000000 56.809000 11.507000 33.197000 # C
606 3 1 0.000000 58.549000 12.613000 34.462000 # C
607 3 1 0.000000 56.987000 12.426000 32.152000 # C
608 3 1 0.000000 58.711000 13.540000 33.433000 # C
609 3 1 0.000000 57.886000 13.500000 32.293000 # C
610 3 3 0.000000 57.797000 14.658000 31.433000 # N
611 3 1 0.000000 58.777000 15.575000 31.209000 # C
612 3 1 0.000000 56.633000 15.294000 31.122000 # C
613 3 1 0.000000 58.243000 16.778000 30.799000 # C
614 3 4 0.000000 60.004000 15.372000 31.420000 # O
615 3 1 0.000000 56.870000 16.595000 30.734000 # C
616 3 4 0.000000 55.485000 14.802000 31.292000 # O
617 3 1 0.000000 58.829000 18.054000 30.740000 # C
618 3 1 0.000000 55.977000 17.670000 30.596000 # C
619 3 1 0.000000 57.934000 19.130000 30.623000 # C
620 3 1 0.000000 56.563000 18.945000 30.553000 # C
621 3 1 0.000000 58.136000 20.478000 30.841000 # C
622 3 1 0.000000 55.993000 20.186000 30.733000 # C
623 3 3 0.000000 56.948000 21.133000 30.916000 # N
624 3 4 0.000000 59.256000 21.015000 31.060000 # O
625 3 4 0.000000 54.751000 20.404000 30.793000 # O
626 3 1 0.000000 56.759000 22.432000 31.519000 # C
627 3 1 0.000000 57.569000 23.517000 31.148000 # C
628 3 1 0.000000 55.877000 22.576000 32.599000 # C
629 3 1 0.000000 57.549000 24.701000 31.895000 # C
630 3 1 0.000000 55.860000 23.755000 33.349000 # C
631 3 1 0.000000 56.714000 24.818000 33.024000 # C
632 3 3 0.000000 56.850000 25.940000 33.920000 # N
633 3 1 0.000000 58.022000 26.425000 34.407000 # C
634 3 1 0.000000 55.864000 26.555000 34.627000 # C
635 3 1 0.000000 57.786000 27.340000 35.412000 # C
636 3 4 0.000000 59.162000 26.041000 34.034000 # O
637 3 1 0.000000 56.407000 27.425000 35.557000 # C
638 3 4 0.000000 54.633000 26.334000 34.473000 # O
639 3 1 0.000000 58.673000 27.997000 36.277000 # C
640 3 1 0.000000 55.812000 28.180000 36.579000 # C
641 3 1 0.000000 58.079000 28.747000 37.301000 # C
642 3 1 0.000000 56.703000 28.834000 37.447000 # C
643 3 1 0.000000 58.635000 29.396000 38.382000 # C
644 3 1 0.000000 56.482000 29.537000 38.613000 # C
645 3 3 0.000000 57.663000 29.883000 39.197000 # N
646 3 4 0.000000 59.871000 29.470000 38.623000 # O
647 3 4 0.000000 55.345000 29.818000 39.080000 # O
648 3 1 0.000000 57.849000 30.480000 40.499000 # C
649 3 1 0.000000 57.002000 30.125000 41.565000 # C
650 3 1 0.000000 58.922000 31.364000 40.742000 # C
651 3 1 0.000000 57.231000 30.624000 42.846000 # C
652 3 1 0.000000 59.159000 31.851000 42.036000 # C
653 3 1 0.000000 58.317000 31.470000 43.094000 # C
654 3 3 0.000000 58.627000 31.833000 44.447000 # N
655 3 1 0.000000 57.922000 32.711000 45.200000 # C
656 3 1 0.000000 59.261000 31.016000 45.321000 # C
657 3 1 0.000000 58.120000 32.469000 46.544000 # C
658 3 4 0.000000 57.106000 33.548000 44.730000 # O
659 3 1 0.000000 58.974000 31.378000 46.621000 # C
660 3 4 0.000000 59.919000 29.997000 44.983000 # O
661 3 1 0.000000 57.412000 32.943000 47.662000 # C
662 3 1 0.000000 59.164000 30.661000 47.808000 # C
663 3 1 0.000000 57.590000 32.211000 48.847000 # C
664 3 1 0.000000 58.425000 31.105000 48.912000 # C
665 3 1 0.000000 56.808000 32.168000 49.987000 # C
666 3 1 0.000000 58.101000 30.435000 50.071000 # C
667 3 3 0.000000 57.095000 31.064000 50.735000 # N
668 3 4 0.000000 55.883000 32.982000 50.254000 # O
669 3 4 0.000000 58.568000 29.306000 50.395000 # O
670 3 1 0.000000 56.167000 30.367000 51.597000 # C
671 3 1 0.000000 56.633000 29.502000 52.604000 # C
672 3 1 0.000000 54.810000 30.311000 51.238000 # C
673 3 1 0.000000 55.799000 28.495000 53.115000 # C
674 3 1 0.000000 53.986000 29.308000 51.738000 # C
675 3 1 0.000000 54.492000 28.334000 52.619000 # C
676 3 3 0.000000 53.825000 27.054000 52.709000 # N
677 3 1 0.000000 52.488000 26.859000 52.542000 # C
678 3 1 0.000000 54.406000 25.908000 52.266000 # C
679 3 1 0.000000 52.232000 25.640000 51.939000 # C
680 3 4 0.000000 51.613000 27.732000 52.784000 # O
681 3 1 0.000000 53.468000 25.037000 51.767000 # C
682 3 4 0.000000 55.651000 25.739000 52.170000 # O
683 3 1 0.000000 51.093000 25.225000 51.222000 # C
684 3 1 0.000000 53.662000 23.983000 50.862000 # C
685 3 1 0.000000 51.308000 24.211000 50.271000 # C
686 3 1 0.000000 52.549000 23.621000 50.097000 # C
687 3 1 0.000000 50.565000 23.884000 49.155000 # C
688 3 1 0.000000 52.510000 22.975000 48.879000 # C
689 3 3 0.000000 51.301000 23.137000 48.284000 # N
690 3 4 0.000000 49.392000 24.290000 48.925000 # O
691 3 4 0.000000 53.508000 22.442000 48.323000 # O
692 3 1 0.000000 51.037000 22.932000 46.877000 # C
693 3 1 0.000000 51.552000 21.807000 46.210000 # C
694 3 1 0.000000 50.404000 23.934000 46.116000 # C
695 3 1 0.000000 51.520000 21.729000 44.811000 # C
696 3 1 0.000000 50.351000 23.843000 44.722000 # C
697 3 1 0.000000 50.948000 22.761000 44.049000 # C
698 3 3 0.000000 50.991000 22.732000 42.604000 # N
699 3 1 0.000000 51.120000 23.797000 41.763000 # C
700 3 1 0.000000 50.851000 21.648000 41.800000 # C
701 3 1 0.000000 51.050000 23.396000 40.447000 # C
702 3 4 0.000000 51.294000 24.987000 42.140000 # O
703 3 1 0.000000 50.887000 22.018000 40.471000 # C
704 3 4 0.000000 50.646000 20.474000 42.217000 # O
705 3 1 0.000000 51.032000 24.134000 39.248000 # C
706 3 1 0.000000 50.701000 21.269000 39.300000 # C
707 3 1 0.000000 50.828000 23.385000 38.079000 # C
708 3 1 0.000000 50.682000 22.007000 38.103000 # C
709 3 1 0.000000 50.574000 23.782000 36.779000 # C
710 3 1 0.000000 50.350000 21.627000 36.820000 # C
711 3 3 0.000000 50.283000 22.708000 36.000000 # N
712 3 4 0.000000 50.548000 24.974000 36.374000 # O
713 3 4 0.000000 50.049000 20.452000 36.470000 # O
714 3 1 0.000000 49.588000 22.723000 34.735000 # C
715 3 1 0.000000 49.872000 21.760000 33.753000 # C
716 3 1 0.000000 48.439000 23.513000 34.595000 # C
717 3 1 0.000000 48.946000 21.493000 32.737000 # C
718 3 1 0.000000 47.497000 23.214000 33.614000 # C
719 3 1 0.000000 47.697000 22.142000 32.722000 # C
720 3 3 0.000000 46.559000 21.520000 32.078000 # N
721 3 1 0.000000 45.370000 22.136000 31.815000 # C
722 3 1 0.000000 46.237000 20.210000 32.271000 # C
723 3 1 0.000000 44.313000 21.253000 31.921000 # C
724 3 4 0.000000 45.242000 23.378000 31.627000 # O
725 3 1 0.000000 44.876000 20.016000 32.202000 # C
726 3 4 0.000000 47.060000 19.328000 32.638000 # O
727 3 1 0.000000 42.965000 21.537000 32.205000 # C
728 3 1 0.000000 44.142000 18.978000 32.781000 # C
729 3 1 0.000000 42.255000 20.522000 32.868000 # C
730 3 1 0.000000 42.829000 19.290000 33.150000 # C
731 3 1 0.000000 41.181000 20.649000 33.728000 # C
732 3 1 0.000000 42.095000 18.740000 34.178000 # C
733 3 3 0.000000 41.094000 19.576000 34.565000 # N
734 3 4 0.000000 40.457000 21.676000 33.818000 # O
735 3 4 0.000000 42.418000 17.684000 34.790000 # O
736 3 1 0.000000 40.582000 19.607000 35.922000 # C
737 3 1 0.000000 40.688000 20.789000 36.684000 # C
738 3 1 0.000000 40.266000 18.409000 36.594000 # C
739 3 1 0.000000 40.636000 20.743000 38.074000 # C
740 3 1 0.000000 40.244000 18.363000 37.994000 # C
741 3 1 0.000000 40.504000 19.519000 38.744000 # C
742 3 3 0.000000 40.864000 19.435000 40.138000 # N
743 3 1 0.000000 41.978000 19.979000 40.690000 # C
744 3 1 0.000000 40.263000 18.720000 41.126000 # C
745 3 1 0.000000 42.080000 19.630000 42.011000 # C
746 3 4 0.000000 42.827000 20.664000 40.057000 # O
747 3 1 0.000000 40.986000 18.828000 42.305000 # C
748 3 4 0.000000 39.205000 18.054000 40.976000 # O
749 3 1 0.000000 43.077000 19.925000 42.946000 # C
750 3 1 0.000000 40.793000 18.275000 43.586000 # C
751 3 1 0.000000 42.897000 19.362000 44.213000 # C
752 3 1 0.000000 41.801000 18.568000 44.528000 # C
753 3 1 0.000000 43.696000 19.408000 45.332000 # C
754 3 1 0.000000 41.989000 18.167000 45.842000 # C
755 3 3 0.000000 43.149000 18.681000 46.338000 # N
756 3 4 0.000000 44.812000 19.993000 45.398000 # O
757 3 4 0.000000 41.198000 17.441000 46.499000 # O
758 3 1 0.000000 43.737000 18.462000 47.634000 # C
759 3 1 0.000000 43.796000 17.173000 48.192000 # C
760 3 1 0.000000 44.357000 19.527000 48.310000 # C
761 3 1 0.000000 44.495000 16.951000 49.386000 # C
762 3 1 0.000000 45.055000 19.301000 49.498000 # C
763 3 1 0.000000 45.148000 18.010000 50.037000 # C
764 3 3 0.000000 45.939000 17.774000 51.216000 # N
765 3 1 0.000000 47.185000 18.244000 51.469000 # C
766 3 1 0.000000 45.577000 17.056000 52.313000 # C
767 3 1 0.000000 47.621000 17.830000 52.708000 # C
768 3 4 0.000000 47.857000 18.951000 50.667000 # O
769 3 4 0.000000 44.464000 16.492000 52.454000 # O
770 3 1 0.000000 46.594000 17.067000 53.249000 # C
771 3 1 0.000000 48.818000 18.075000 53.398000 # C
772 3 1 0.000000 46.681000 16.493000 54.526000 # C
773 3 1 0.000000 48.906000 17.506000 54.680000 # C
774 3 1 0.000000 47.879000 16.740000 55.220000 # C
775 3 1 0.000000 49.899000 17.556000 55.641000 # C
776 3 1 0.000000 48.300000 16.356000 56.477000 # C
777 3 4 0.000000 51.000000 18.164000 55.530000 # O
778 3 3 0.000000 49.532000 16.854000 56.738000 # N
779 3 4 0.000000 47.642000 15.648000 57.287000 # O
780 3 2 0.000000 50.082000 16.732000 57.618000 # H
781 3 1 0.000000 54.244000 15.670000 55.623000 # C
782 3 1 0.000000 56.217000 16.835000 54.810000 # C
783 3 1 0.000000 54.385000 16.303000 56.863000 # C
784 3 1 0.000000 56.347000 17.474000 56.049000 # C
785 3 1 0.000000 55.437000 17.203000 57.080000 # C
786 3 2 0.000000 55.546000 17.691000 58.042000 # H
787 3 2 0.000000 57.203000 12.703000 50.784000 # H
788 3 2 0.000000 52.638000 14.720000 49.979000 # H
789 3 2 0.000000 54.077000 13.662000 45.132000 # H
790 3 2 0.000000 55.755000 9.933000 46.502000 # H
791 3 2 0.000000 54.362000 12.942000 42.815000 # H
792 3 2 0.000000 56.063000 9.222000 44.166000 # H
793 3 2 0.000000 58.655000 9.946000 39.332000 # H
794 3 2 0.000000 53.882000 11.068000 38.159000 # H
795 3 2 0.000000 56.038000 10.749000 33.114000 # H
796 3 2 0.000000 59.115000 12.746000 35.374000 # H
797 3 2 0.000000 56.362000 12.346000 31.274000 # H
798 3 2 0.000000 59.396000 14.361000 33.594000 # H
799 3 2 0.000000 59.885000 18.205000 30.926000 # H
800 3 2 0.000000 54.901000 17.538000 30.654000 # H
801 3 2 0.000000 58.255000 23.427000 30.316000 # H
802 3 2 0.000000 55.265000 21.742000 32.928000 # H
803 3 2 0.000000 58.213000 25.513000 31.622000 # H
804 3 2 0.000000 55.239000 23.799000 34.235000 # H
805 3 2 0.000000 59.746000 27.890000 36.196000 # H
806 3 2 0.000000 54.739000 28.211000 36.723000 # H
807 3 2 0.000000 56.189000 29.424000 41.423000 # H
808 3 2 0.000000 59.574000 31.668000 39.934000 # H
809 3 2 0.000000 56.587000 30.322000 43.666000 # H
810 3 2 0.000000 60.002000 32.510000 42.219000 # H
811 3 2 0.000000 56.657000 33.714000 47.578000 # H
812 3 2 0.000000 59.714000 29.729000 47.832000 # H
813 3 2 0.000000 57.672000 29.539000 52.910000 # H
814 3 2 0.000000 54.418000 30.938000 50.450000 # H
815 3 2 0.000000 56.208000 27.769000 53.805000 # H
816 3 2 0.000000 53.002000 29.210000 51.306000 # H
817 3 2 0.000000 50.172000 25.794000 51.245000 # H
818 3 2 0.000000 54.657000 23.626000 50.619000 # H
819 3 2 0.000000 52.028000 21.009000 46.768000 # H
820 3 2 0.000000 50.014000 24.825000 46.587000 # H
821 3 2 0.000000 51.992000 20.882000 44.324000 # H
822 3 2 0.000000 49.869000 24.640000 44.168000 # H
823 3 2 0.000000 51.103000 25.215000 39.235000 # H
824 3 2 0.000000 50.513000 20.204000 39.328000 # H
825 3 2 0.000000 50.762000 21.149000 33.828000 # H
826 3 2 0.000000 48.194000 24.260000 35.336000 # H
827 3 2 0.000000 49.148000 20.693000 32.037000 # H
828 3 2 0.000000 46.555000 23.736000 33.659000 # H
829 3 2 0.000000 42.585000 22.549000 32.153000 # H
830 3 2 0.000000 44.632000 18.091000 33.154000 # H
831 3 2 0.000000 40.951000 21.731000 36.225000 # H
832 3 2 0.000000 40.150000 17.487000 36.034000 # H
833 3 2 0.000000 40.810000 21.653000 38.629000 # H
834 3 2 0.000000 40.147000 17.407000 38.487000 # H
835 3 2 0.000000 43.941000 20.530000 42.705000 # H
836 3 2 0.000000 39.947000 17.644000 43.826000 # H
837 3 2 0.000000 43.346000 16.333000 47.679000 # H
838 3 2 0.000000 44.306000 20.529000 47.906000 # H
839 3 2 0.000000 44.559000 15.945000 49.778000 # H
840 3 2 0.000000 45.529000 20.139000 49.995000 # H
841 3 2 0.000000 49.618000 18.669000 52.977000 # H
842 3 2 0.000000 45.885000 15.899000 54.951000 # H
843 3 2 0.000000 53.432000 14.964000 55.470000 # H
844 3 2 0.000000 56.928000 17.044000 54.019000 # H
845 3 2 0.000000 53.684000 16.093000 57.659000 # H
846 3 2 0.000000 57.156000 18.170000 56.213000 # H
847 4 3 0.000000 47.169000 51.050000 31.311000 # N
848 4 1 0.000000 48.490000 50.480000 31.250000 # C
849 4 1 0.000000 46.657000 51.794000 32.318000 # C
850 4 1 0.000000 46.186000 50.920000 30.383000 # C
851 4 1 0.000000 45.348000 52.140000 32.044000 # C
852 4 4 0.000000 47.295000 52.117000 33.359000 # O
853 4 1 0.000000 45.041000 51.575000 30.808000 # C
854 4 4 0.000000 46.298000 50.260000 29.317000 # O
855 4 1 0.000000 44.405000 52.858000 32.794000 # C
856 4 1 0.000000 43.764000 51.679000 30.233000 # C
857 4 1 0.000000 43.128000 52.956000 32.221000 # C
858 4 1 0.000000 42.817000 52.383000 30.995000 # C
859 4 1 0.000000 41.961000 53.508000 32.704000 # C
860 4 1 0.000000 41.469000 52.612000 30.789000 # C
861 4 3 0.000000 40.939000 53.311000 31.830000 # N
862 4 4 0.000000 41.842000 54.080000 33.826000 # O
863 4 4 0.000000 40.815000 52.230000 29.779000 # O
864 4 1 0.000000 39.554000 53.649000 32.037000 # C
865 4 1 0.000000 38.542000 52.722000 31.734000 # C
866 4 1 0.000000 39.199000 54.868000 32.639000 # C
867 4 1 0.000000 37.211000 52.995000 32.057000 # C
868 4 1 0.000000 37.866000 55.137000 32.969000 # C
869 4 1 0.000000 36.862000 54.201000 32.687000 # C
870 4 3 0.000000 35.505000 54.436000 33.100000 # N
871 4 1 0.000000 35.090000 54.714000 34.366000 # C
872 4 1 0.000000 34.384000 54.178000 32.384000 # C
873 4 1 0.000000 33.713000 54.638000 34.449000 # C
874 4 4 0.000000 35.865000 54.926000 35.336000 # O
875 4 1 0.000000 33.266000 54.303000 33.177000 # C
876 4 4 0.000000 34.381000 53.840000 31.168000 # O
877 4 1 0.000000 32.852000 54.665000 35.560000 # C
878 4 1 0.000000 31.930000 53.977000 32.913000 # C
879 4 1 0.000000 31.517000 54.310000 35.299000 # C
880 4 1 0.000000 31.075000 53.987000 34.025000 # C
881 4 1 0.000000 30.485000 53.983000 36.159000 # C
882 4 1 0.000000 29.795000 53.489000 34.163000 # C
883 4 3 0.000000 29.426000 53.477000 35.472000 # N
884 4 4 0.000000 30.542000 54.068000 37.417000 # O
885 4 4 0.000000 29.109000 52.998000 33.226000 # O
886 4 1 0.000000 28.359000 52.666000 36.008000 # C
887 4 1 0.000000 27.090000 52.669000 35.408000 # C
888 4 1 0.000000 28.653000 51.688000 36.972000 # C
889 4 1 0.000000 26.171000 51.647000 35.688000 # C
890 4 1 0.000000 27.749000 50.659000 37.234000 # C
891 4 1 0.000000 26.523000 50.588000 36.546000 # C
892 4 3 0.000000 25.780000 49.347000 36.536000 # N
893 4 1 0.000000 25.766000 48.406000 37.519000 # C
894 4 1 0.000000 25.403000 48.690000 35.404000 # C
895 4 1 0.000000 25.420000 47.171000 37.013000 # C
896 4 4 0.000000 26.096000 48.623000 38.717000 # O
897 4 1 0.000000 25.178000 47.354000 35.661000 # C
898 4 4 0.000000 25.388000 49.203000 34.253000 # O
899 4 1 0.000000 25.559000 45.893000 37.579000 # C
900 4 1 0.000000 25.047000 46.277000 34.770000 # C
901 4 1 0.000000 25.449000 44.815000 36.685000 # C
902 4 1 0.000000 25.202000 45.000000 35.334000 # C
903 4 1 0.000000 25.824000 43.495000 36.836000 # C
904 4 1 0.000000 25.440000 43.788000 34.725000 # C
905 4 3 0.000000 25.827000 42.859000 35.636000 # N
906 4 4 0.000000 26.224000 42.977000 37.914000 # O
907 4 4 0.000000 25.377000 43.584000 33.481000 # O
908 4 1 0.000000 26.532000 41.630000 35.356000 # C
909 4 1 0.000000 26.369000 40.508000 36.184000 # C
910 4 1 0.000000 27.512000 41.603000 34.354000 # C
911 4 1 0.000000 27.225000 39.406000 36.058000 # C
912 4 1 0.000000 28.371000 40.507000 34.231000 # C
913 4 1 0.000000 28.256000 39.411000 35.097000 # C
914 4 3 0.000000 29.271000 38.387000 35.109000 # N
915 4 1 0.000000 29.936000 37.947000 36.208000 # C
916 4 1 0.000000 29.917000 37.853000 34.038000 # C
917 4 1 0.000000 30.994000 37.142000 35.843000 # C
918 4 4 0.000000 29.661000 38.283000 37.390000 # O
919 4 1 0.000000 30.986000 37.080000 34.455000 # C
920 4 4 0.000000 29.600000 38.065000 32.837000 # O
921 4 1 0.000000 32.019000 36.571000 36.613000 # C
922 4 1 0.000000 32.004000 36.437000 33.733000 # C
923 4 1 0.000000 33.038000 35.934000 35.892000 # C
924 4 1 0.000000 33.031000 35.870000 34.507000 # C
925 4 1 0.000000 34.236000 35.396000 36.309000 # C
926 4 1 0.000000 34.229000 35.292000 34.142000 # C
927 4 3 0.000000 34.977000 35.000000 35.242000 # N
928 4 4 0.000000 34.624000 35.339000 37.508000 # O
929 4 4 0.000000 34.587000 35.067000 32.954000 # O
930 4 1 0.000000 36.347000 34.540000 35.267000 # C
931 4 1 0.000000 37.266000 35.008000 34.309000 # C
932 4 1 0.000000 36.800000 33.678000 36.289000 # C
933 4 1 0.000000 38.609000 34.641000 34.382000 # C
934 4 1 0.000000 38.156000 33.326000 36.367000 # C
935 4 1 0.000000 39.065000 33.818000 35.417000 # C
936 4 3 0.000000 40.474000 33.594000 35.563000 # N
937 4 1 0.000000 41.226000 32.802000 34.761000 # C
938 4 1 0.000000 41.328000 34.492000 36.108000 # C
939 4 1 0.000000 42.552000 33.180000 34.808000 # C
940 4 4 0.000000 40.751000 31.927000 33.989000 # O
941 4 1 0.000000 42.616000 34.267000 35.667000 # C
942 4 4 0.000000 40.968000 35.467000 36.818000 # O
943 4 1 0.000000 43.623000 32.827000 33.969000 # C
944 4 1 0.000000 43.739000 35.102000 35.733000 # C
945 4 1 0.000000 44.740000 33.676000 34.022000 # C
946 4 1 0.000000 44.789000 34.777000 34.864000 # C
947 4 1 0.000000 45.772000 33.840000 33.116000 # C
948 4 1 0.000000 45.829000 35.565000 34.421000 # C
949 4 3 0.000000 46.432000 35.014000 33.335000 # N
950 4 4 0.000000 46.011000 33.063000 32.152000 # O
951 4 4 0.000000 46.089000 36.718000 34.868000 # O
952 4 1 0.000000 47.106000 35.801000 32.327000 # C
953 4 1 0.000000 48.067000 36.762000 32.690000 # C
954 4 1 0.000000 46.589000 35.828000 31.021000 # C
955 4 1 0.000000 48.374000 37.821000 31.821000 # C
956 4 1 0.000000 46.885000 36.882000 30.163000 # C
957 4 1 0.000000 47.716000 37.938000 30.583000 # C
958 4 3 0.000000 47.599000 39.224000 29.933000 # N
959 4 1 0.000000 47.259000 39.409000 28.627000 # C
960 4 1 0.000000 47.112000 40.315000 30.581000 # C
961 4 1 0.000000 46.509000 40.562000 28.464000 # C
962 4 4 0.000000 47.485000 38.571000 27.715000 # O
963 4 1 0.000000 46.422000 41.137000 29.721000 # C
964 4 4 0.000000 47.144000 40.466000 31.832000 # O
965 4 1 0.000000 45.628000 40.908000 27.422000 # C
966 4 1 0.000000 45.444000 42.091000 30.037000 # C
967 4 1 0.000000 44.610000 41.817000 27.763000 # C
968 4 1 0.000000 44.522000 42.379000 29.026000 # C
969 4 1 0.000000 43.388000 42.033000 27.158000 # C
970 4 1 0.000000 43.249000 42.896000 29.138000 # C
971 4 3 0.000000 42.537000 42.682000 28.002000 # N
972 4 4 0.000000 43.067000 41.613000 26.012000 # O
973 4 4 0.000000 42.760000 43.364000 30.202000 # O
974 4 1 0.000000 41.095000 42.743000 27.905000 # C
975 4 1 0.000000 40.382000 43.790000 28.512000 # C
976 4 1 0.000000 40.372000 41.672000 27.346000 # C
977 4 1 0.000000 38.989000 43.724000 28.643000 # C
978 4 1 0.000000 38.979000 41.620000 27.454000 # C
979 4 1 0.000000 38.273000 42.623000 28.144000 # C
980 4 3 0.000000 36.848000 42.503000 28.352000 # N
981 4 1 0.000000 36.140000 41.357000 28.558000 # C
982 4 1 0.000000 35.927000 43.501000 28.324000 # C
983 4 1 0.000000 34.790000 41.622000 28.646000 # C
984 4 4 0.000000 36.653000 40.211000 28.666000 # O
985 4 1 0.000000 34.656000 42.996000 28.506000 # C
986 4 4 0.000000 36.197000 44.712000 28.094000 # O
987 4 1 0.000000 33.679000 40.765000 28.752000 # C
988 4 1 0.000000 33.402000 43.621000 28.468000 # C
989 4 1 0.000000 32.424000 41.391000 28.697000 # C
990 4 1 0.000000 32.291000 42.765000 28.574000 # C
991 4 1 0.000000 31.150000 40.864000 28.587000 # C
992 4 1 0.000000 30.947000 43.014000 28.398000 # C
993 4 3 0.000000 30.238000 41.854000 28.405000 # N
994 4 4 0.000000 30.868000 39.637000 28.586000 # O
995 4 4 0.000000 30.447000 44.148000 28.160000 # O
996 4 1 0.000000 28.910000 41.713000 27.860000 # C
997 4 1 0.000000 27.874000 42.569000 28.271000 # C
998 4 1 0.000000 28.718000 40.921000 26.721000 # C
999 4 1 0.000000 26.736000 42.736000 27.473000 # C
1000 4 1 0.000000 27.609000 41.123000 25.903000 # C
1001 4 1 0.000000 26.643000 42.096000 26.223000 # C
1002 4 3 0.000000 25.812000 42.656000 25.177000 # N
1003 4 1 0.000000 25.476000 42.023000 24.016000 # C
1004 4 1 0.000000 25.832000 43.981000 24.859000 # C
1005 4 1 0.000000 25.369000 42.919000 22.970000 # C
1006 4 4 0.000000 25.402000 40.770000 23.887000 # O
1007 4 1 0.000000 25.587000 44.175000 23.518000 # C
1008 4 4 0.000000 26.201000 44.891000 25.650000 # O
1009 4 1 0.000000 25.522000 42.674000 21.593000 # C
1010 4 1 0.000000 25.969000 45.271000 22.741000 # C
1011 4 1 0.000000 25.993000 43.756000 20.829000 # C
1012 4 1 0.000000 26.213000 45.006000 21.389000 # C
1013 4 1 0.000000 26.732000 43.725000 19.662000 # C
1014 4 1 0.000000 27.088000 45.663000 20.552000 # C
1015 4 3 0.000000 27.439000 44.878000 19.499000 # N
1016 4 4 0.000000 26.840000 42.716000 18.914000 # O
1017 4 4 0.000000 27.624000 46.775000 20.822000 # O
1018 4 1 0.000000 28.724000 44.989000 18.834000 # C
1019 4 1 0.000000 29.609000 43.892000 18.831000 # C
1020 4 1 0.000000 29.230000 46.252000 18.465000 # C
1021 4 1 0.000000 30.972000 44.080000 18.621000 # C
1022 4 1 0.000000 30.607000 46.442000 18.283000 # C
1023 4 1 0.000000 31.494000 45.367000 18.435000 # C
1024 4 3 0.000000 32.905000 45.591000 18.635000 # N
1025 4 1 0.000000 33.634000 45.100000 19.668000 # C
1026 4 1 0.000000 33.740000 46.408000 17.938000 # C
1027 4 1 0.000000 34.916000 45.583000 19.625000 # C
1028 4 4 0.000000 33.176000 44.349000 20.571000 # O
1029 4 1 0.000000 34.999000 46.416000 18.519000 # C
1030 4 4 0.000000 33.402000 47.061000 16.915000 # O
1031 4 1 0.000000 35.986000 45.379000 20.502000 # C
1032 4 1 0.000000 36.186000 47.100000 18.190000 # C
1033 4 1 0.000000 37.160000 46.070000 20.189000 # C
1034 4 1 0.000000 37.264000 46.899000 19.078000 # C
1035 4 1 0.000000 38.362000 46.134000 20.853000 # C
1036 4 1 0.000000 38.543000 47.431000 19.121000 # C
1037 4 3 0.000000 39.220000 46.964000 20.208000 # N
1038 4 4 0.000000 38.616000 45.552000 21.944000 # O
1039 4 4 0.000000 39.028000 48.226000 18.273000 # O
1040 4 1 0.000000 40.546000 47.311000 20.648000 # C
1041 4 1 0.000000 40.974000 48.650000 20.665000 # C
1042 4 1 0.000000 41.394000 46.317000 21.166000 # C
1043 4 1 0.000000 42.212000 48.989000 21.227000 # C
1044 4 1 0.000000 42.626000 46.659000 21.728000 # C
1045 4 1 0.000000 43.038000 47.998000 21.782000 # C
1046 4 3 0.000000 44.271000 48.350000 22.436000 # N
1047 4 1 0.000000 44.713000 47.900000 23.637000 # C
1048 4 1 0.000000 45.240000 49.179000 21.964000 # C
1049 4 1 0.000000 45.945000 48.437000 23.935000 # C
1050 4 4 0.000000 44.070000 47.111000 24.384000 # O
1051 4 4 0.000000 45.194000 49.761000 20.853000 # O
1052 4 1 0.000000 46.284000 49.258000 22.866000 # C
1053 4 1 0.000000 46.791000 48.257000 25.041000 # C
1054 4 1 0.000000 47.497000 49.959000 22.817000 # C
1055 4 1 0.000000 48.010000 48.953000 24.991000 # C
1056 4 1 0.000000 48.347000 49.777000 23.923000 # C
1057 4 1 0.000000 49.080000 48.997000 25.867000 # C
1058 4 1 0.000000 49.599000 50.286000 24.204000 # C
1059 4 4 0.000000 49.158000 48.374000 26.962000 # O
1060 4 3 0.000000 50.050000 49.810000 25.389000 # N
1061 4 4 0.000000 50.251000 51.077000 23.470000 # O
1062 4 2 0.000000 50.971000 50.019000 25.837000 # H
1063 4 1 0.000000 49.373000 50.845000 30.218000 # C
1064 4 1 0.000000 48.917000 49.590000 32.250000 # C
1065 4 1 0.000000 50.679000 50.342000 30.205000 # C
1066 4 1 0.000000 50.220000 49.081000 32.226000 # C
1067 4 1 0.000000 51.107000 49.462000 31.209000 # C
1068 4 2 0.000000 52.119000 49.075000 31.199000 # H
1069 4 2 0.000000 44.634000 53.282000 33.764000 # H
1070 4 2 0.000000 43.514000 51.220000 29.286000 # H
1071 4 2 0.000000 38.785000 51.766000 31.289000 # H
1072 4 2 0.000000 39.956000 55.607000 32.866000 # H
1073 4 2 0.000000 36.455000 52.244000 31.851000 # H
1074 4 2 0.000000 37.610000 56.071000 33.452000 # H
1075 4 2 0.000000 33.208000 54.840000 36.567000 # H
1076 4 2 0.000000 31.610000 53.633000 31.940000 # H
1077 4 2 0.000000 26.841000 53.419000 34.666000 # H
1078 4 2 0.000000 29.633000 51.646000 37.427000 # H
1079 4 2 0.000000 25.223000 51.640000 35.170000 # H
1080 4 2 0.000000 28.071000 49.855000 37.882000 # H
1081 4 2 0.000000 25.880000 45.755000 38.605000 # H
1082 4 2 0.000000 24.967000 46.420000 33.697000 # H
1083 4 2 0.000000 25.617000 40.507000 36.962000 # H
1084 4 2 0.000000 27.681000 42.470000 33.723000 # H
1085 4 2 0.000000 27.114000 38.567000 36.733000 # H
1086 4 2 0.000000 29.179000 40.558000 33.511000 # H
1087 4 2 0.000000 32.052000 36.663000 37.690000 # H
1088 4 2 0.000000 32.026000 36.427000 32.650000 # H
1089 4 2 0.000000 36.960000 35.695000 33.531000 # H
1090 4 2 0.000000 36.108000 33.290000 37.024000 # H
1091 4 2 0.000000 39.313000 35.029000 33.654000 # H
1092 4 2 0.000000 38.500000 32.684000 37.172000 # H
1093 4 2 0.000000 43.530000 32.056000 33.215000 # H
1094 4 2 0.000000 43.732000 36.027000 36.293000 # H
1095 4 2 0.000000 48.494000 36.750000 33.687000 # H
1096 4 2 0.000000 45.828000 35.126000 30.711000 # H
1097 4 2 0.000000 49.030000 38.611000 32.161000 # H
1098 4 2 0.000000 46.335000 36.941000 29.237000 # H
1099 4 2 0.000000 45.601000 40.350000 26.494000 # H
1100 4 2 0.000000 45.283000 42.415000 31.059000 # H
1101 4 2 0.000000 40.908000 44.639000 28.936000 # H
1102 4 2 0.000000 40.882000 40.836000 26.888000 # H
1103 4 2 0.000000 38.476000 44.514000 29.182000 # H
1104 4 2 0.000000 38.457000 40.773000 27.025000 # H
1105 4 2 0.000000 33.783000 39.688000 28.805000 # H
1106 4 2 0.000000 33.300000 44.686000 28.298000 # H
1107 4 2 0.000000 27.990000 43.179000 29.158000 # H
1108 4 2 0.000000 29.497000 40.255000 26.379000 # H
1109 4 2 0.000000 25.987000 43.458000 27.768000 # H
1110 4 2 0.000000 27.597000 40.614000 24.952000 # H
1111 4 2 0.000000 25.530000 41.664000 21.203000 # H
1112 4 2 0.000000 26.304000 46.189000 23.201000 # H
1113 4 2 0.000000 29.281000 42.906000 19.128000 # H
1114 4 2 0.000000 28.571000 47.112000 18.430000 # H
1115 4 2 0.000000 31.633000 43.231000 18.715000 # H
1116 4 2 0.000000 30.986000 47.444000 18.148000 # H
1117 4 2 0.000000 35.908000 44.747000 21.377000 # H
1118 4 2 0.000000 36.262000 47.756000 17.333000 # H
1119 4 2 0.000000 40.329000 49.436000 20.291000 # H
1120 4 2 0.000000 41.090000 45.279000 21.144000 # H
1121 4 2 0.000000 42.505000 50.030000 21.263000 # H
1122 4 2 0.000000 43.257000 45.875000 22.127000 # H
1123 4 2 0.000000 46.527000 47.618000 25.873000 # H
1124 4 2 0.000000 47.766000 50.599000 21.988000 # H
1125 4 2 0.000000 49.057000 51.536000 29.442000 # H
1126 4 2 0.000000 48.238000 49.297000 33.043000 # H
1127 4 2 0.000000 51.363000 50.637000 29.421000 # H
1128 4 2 0.000000 50.547000 48.401000 32.999000 # H
1129 5 3 0.000000 50.967000 56.370000 37.231000 # N
1130 5 1 0.000000 52.313000 55.961000 36.924000 # C
1131 5 1 0.000000 50.536000 56.930000 38.384000 # C
1132 5 1 0.000000 49.878000 56.240000 36.429000 # C
1133 5 1 0.000000 49.174000 57.158000 38.330000 # C
1134 5 4 0.000000 51.283000 57.198000 39.367000 # O
1135 5 1 0.000000 48.748000 56.710000 37.081000 # C
1136 5 4 0.000000 49.898000 55.725000 35.280000 # O
1137 5 1 0.000000 48.285000 57.674000 39.283000 # C
1138 5 1 0.000000 47.399000 56.737000 36.696000 # C
1139 5 1 0.000000 46.935000 57.695000 38.899000 # C
1140 5 1 0.000000 46.508000 57.238000 37.659000 # C
1141 5 1 0.000000 45.803000 58.054000 39.597000 # C
1142 5 1 0.000000 45.129000 57.338000 37.661000 # C
1143 5 3 0.000000 44.689000 57.848000 38.845000 # N
1144 5 4 0.000000 45.791000 58.475000 40.790000 # O
1145 5 4 0.000000 44.377000 57.006000 36.704000 # O
1146 5 1 0.000000 43.322000 58.003000 39.273000 # C
1147 5 1 0.000000 42.369000 57.011000 38.985000 # C
1148 5 1 0.000000 42.943000 59.097000 40.070000 # C
1149 5 1 0.000000 41.078000 57.095000 39.510000 # C
1150 5 1 0.000000 41.652000 59.175000 40.602000 # C
1151 5 1 0.000000 40.711000 58.173000 40.333000 # C
1152 5 3 0.000000 39.410000 58.206000 40.946000 # N
1153 5 1 0.000000 39.156000 58.286000 42.280000 # C
1154 5 1 0.000000 38.228000 57.910000 40.354000 # C
1155 5 1 0.000000 37.818000 58.049000 42.530000 # C
1156 5 4 0.000000 40.038000 58.469000 43.160000 # O
1157 5 1 0.000000 37.228000 57.817000 41.295000 # C
1158 5 4 0.000000 38.083000 57.718000 39.115000 # O
1159 5 1 0.000000 37.126000 57.850000 43.738000 # C
1160 5 1 0.000000 35.905000 57.377000 41.166000 # C
1161 5 1 0.000000 35.807000 57.382000 43.608000 # C
1162 5 1 0.000000 35.220000 57.162000 42.371000 # C
1163 5 1 0.000000 34.944000 56.844000 44.545000 # C
1164 5 1 0.000000 34.025000 56.512000 42.608000 # C
1165 5 3 0.000000 33.849000 56.307000 43.941000 # N
1166 5 4 0.000000 35.171000 56.788000 45.785000 # O
1167 5 4 0.000000 33.262000 56.060000 41.712000 # O
1168 5 1 0.000000 32.951000 55.325000 44.501000 # C
1169 5 1 0.000000 31.615000 55.257000 44.076000 # C
1170 5 1 0.000000 33.471000 54.281000 45.282000 # C
1171 5 1 0.000000 30.846000 54.113000 44.337000 # C
1172 5 1 0.000000 32.715000 53.134000 45.523000 # C
1173 5 1 0.000000 31.415000 53.007000 44.996000 # C
1174 5 3 0.000000 30.799000 51.702000 44.921000 # N
1175 5 1 0.000000 31.013000 50.657000 45.766000 # C
1176 5 1 0.000000 30.327000 51.143000 43.771000 # C
1177 5 1 0.000000 30.716000 49.458000 45.153000 # C
1178 5 4 0.000000 31.489000 50.768000 46.929000 # O
1179 5 1 0.000000 30.269000 49.770000 43.878000 # C
1180 5 4 0.000000 30.100000 51.782000 42.709000 # O
1181 5 1 0.000000 31.055000 48.146000 45.524000 # C
1182 5 1 0.000000 30.114000 48.795000 42.879000 # C
1183 5 1 0.000000 30.920000 47.174000 44.519000 # C
1184 5 1 0.000000 30.467000 47.487000 43.247000 # C
1185 5 1 0.000000 31.436000 45.896000 44.446000 # C
1186 5 1 0.000000 30.729000 46.387000 42.459000 # C
1187 5 3 0.000000 31.328000 45.408000 43.183000 # N
1188 5 4 0.000000 32.033000 45.304000 45.386000 # O
1189 5 4 0.000000 30.508000 46.325000 41.218000 # O
1190 5 1 0.000000 32.098000 44.306000 42.656000 # C
1191 5 1 0.000000 32.161000 43.084000 43.344000 # C
1192 5 1 0.000000 32.923000 44.505000 41.540000 # C
1193 5 1 0.000000 33.091000 42.107000 42.965000 # C
1194 5 1 0.000000 33.855000 43.534000 41.164000 # C
1195 5 1 0.000000 33.969000 42.338000 41.887000 # C
1196 5 3 0.000000 35.067000 41.438000 41.633000 # N
1197 5 1 0.000000 35.921000 40.950000 42.570000 # C
1198 5 1 0.000000 35.601000 41.109000 40.427000 # C
1199 5 1 0.000000 36.987000 40.316000 41.969000 # C
1200 5 4 0.000000 35.786000 41.114000 43.812000 # O
1201 5 1 0.000000 36.787000 40.416000 40.598000 # C
1202 5 4 0.000000 35.098000 41.422000 39.316000 # O
1203 5 1 0.000000 38.160000 39.777000 42.518000 # C
1204 5 1 0.000000 37.747000 39.979000 39.672000 # C
1205 5 1 0.000000 39.121000 39.345000 41.594000 # C
1206 5 1 0.000000 38.923000 39.444000 40.225000 # C
1207 5 1 0.000000 40.412000 38.899000 41.778000 # C
1208 5 1 0.000000 40.106000 39.048000 39.635000 # C
1209 5 3 0.000000 41.028000 38.716000 40.581000 # N
1210 5 4 0.000000 40.971000 38.747000 42.899000 # O
1211 5 4 0.000000 40.310000 39.005000 38.392000 # O
1212 5 1 0.000000 42.423000 38.411000 40.368000 # C
1213 5 1 0.000000 43.148000 39.086000 39.369000 # C
1214 5 1 0.000000 43.098000 37.492000 41.201000 # C
1215 5 1 0.000000 44.516000 38.865000 39.217000 # C
1216 5 1 0.000000 44.477000 37.286000 41.056000 # C
1217 5 1 0.000000 45.191000 37.983000 40.068000 # C
1218 5 3 0.000000 46.622000 37.902000 40.000000 # N
1219 5 1 0.000000 47.323000 37.297000 39.010000 # C
1220 5 1 0.000000 47.456000 38.820000 40.541000 # C
1221 5 1 0.000000 48.601000 37.812000 38.934000 # C
1222 5 4 0.000000 46.827000 36.470000 38.199000 # O
1223 5 1 0.000000 48.683000 38.793000 39.911000 # C
1224 5 4 0.000000 47.110000 39.659000 41.413000 # O
1225 5 1 0.000000 49.569000 37.681000 37.923000 # C
1226 5 1 0.000000 49.721000 39.733000 39.940000 # C
1227 5 1 0.000000 50.597000 38.636000 37.942000 # C
1228 5 1 0.000000 50.662000 39.631000 38.907000 # C
1229 5 1 0.000000 51.469000 39.019000 36.939000 # C
1230 5 1 0.000000 51.549000 40.576000 38.440000 # C
1231 5 3 0.000000 52.040000 40.225000 37.222000 # N
1232 5 4 0.000000 51.640000 38.391000 35.858000 # O
1233 5 4 0.000000 51.761000 41.691000 38.996000 # O
1234 5 1 0.000000 52.487000 41.194000 36.246000 # C
1235 5 1 0.000000 53.394000 42.208000 36.603000 # C
1236 5 1 0.000000 51.788000 41.316000 35.033000 # C
1237 5 1 0.000000 53.473000 43.388000 35.848000 # C
1238 5 1 0.000000 51.858000 42.489000 34.289000 # C
1239 5 1 0.000000 52.637000 43.575000 34.732000 # C
1240 5 3 0.000000 52.308000 44.907000 34.276000 # N
1241 5 1 0.000000 51.769000 45.203000 33.061000 # C
1242 5 1 0.000000 51.818000 45.854000 35.119000 # C
1243 5 1 0.000000 50.899000 46.277000 33.148000 # C
1244 5 4 0.000000 51.941000 44.508000 32.026000 # O
1245 5 1 0.000000 50.938000 46.688000 34.471000 # C
1246 5 4 0.000000 52.014000 45.861000 36.363000 # O
1247 5 1 0.000000 49.849000 46.641000 32.284000 # C
1248 5 1 0.000000 49.929000 47.484000 35.032000 # C
1249 5 1 0.000000 48.809000 47.386000 32.870000 # C
1250 5 1 0.000000 48.849000 47.784000 34.196000 # C
1251 5 1 0.000000 47.499000 47.533000 32.462000 # C
1252 5 1 0.000000 47.562000 48.140000 34.539000 # C
1253 5 3 0.000000 46.720000 47.981000 33.487000 # N
1254 5 4 0.000000 47.058000 47.216000 31.322000 # O
1255 5 4 0.000000 47.189000 48.423000 35.710000 # O
1256 5 1 0.000000 45.279000 47.893000 33.587000 # C
1257 5 1 0.000000 44.565000 48.776000 34.413000 # C
1258 5 1 0.000000 44.588000 46.820000 32.991000 # C
1259 5 1 0.000000 43.216000 48.541000 34.713000 # C
1260 5 1 0.000000 43.236000 46.601000 33.271000 # C
1261 5 1 0.000000 42.544000 47.432000 34.172000 # C
1262 5 3 0.000000 41.181000 47.131000 34.546000 # N
1263 5 1 0.000000 40.620000 45.897000 34.690000 # C
1264 5 1 0.000000 40.176000 48.016000 34.769000 # C
1265 5 1 0.000000 39.278000 45.998000 34.987000 # C
1266 5 4 0.000000 41.249000 44.811000 34.580000 # O
1267 5 1 0.000000 38.996000 47.356000 35.047000 # C
1268 5 4 0.000000 40.295000 49.269000 34.666000 # O
1269 5 1 0.000000 38.279000 45.016000 35.124000 # C
1270 5 1 0.000000 37.696000 47.838000 35.254000 # C
1271 5 1 0.000000 36.976000 45.501000 35.314000 # C
1272 5 1 0.000000 36.698000 46.857000 35.390000 # C
1273 5 1 0.000000 35.755000 44.852000 35.303000 # C
1274 5 1 0.000000 35.325000 46.973000 35.424000 # C
1275 5 3 0.000000 34.737000 45.749000 35.372000 # N
1276 5 4 0.000000 35.592000 43.609000 35.178000 # O
1277 5 4 0.000000 34.691000 48.064000 35.403000 # O
1278 5 1 0.000000 33.363000 45.526000 34.990000 # C
1279 5 1 0.000000 32.321000 46.207000 35.641000 # C
1280 5 1 0.000000 33.087000 44.855000 33.792000 # C
1281 5 1 0.000000 31.071000 46.338000 35.025000 # C
1282 5 1 0.000000 31.859000 45.026000 33.158000 # C
1283 5 1 0.000000 30.861000 45.842000 33.725000 # C
1284 5 3 0.000000 29.839000 46.424000 32.878000 # N
1285 5 1 0.000000 29.403000 45.897000 31.698000 # C
1286 5 1 0.000000 29.690000 47.770000 32.735000 # C
1287 5 1 0.000000 29.064000 46.891000 30.800000 # C
1288 5 4 0.000000 29.429000 44.667000 31.417000 # O
1289 5 1 0.000000 29.238000 48.091000 31.475000 # C
1290 5 4 0.000000 30.080000 48.618000 33.584000 # O
1291 5 1 0.000000 29.042000 46.827000 29.395000 # C
1292 5 1 0.000000 29.400000 49.306000 30.805000 # C
1293 5 1 0.000000 29.294000 48.035000 28.725000 # C
1294 5 1 0.000000 29.473000 49.229000 29.410000 # C
1295 5 1 0.000000 29.859000 48.223000 27.478000 # C
1296 5 1 0.000000 30.154000 50.073000 28.559000 # C
1297 5 3 0.000000 30.424000 49.459000 27.376000 # N
1298 5 4 0.000000 29.954000 47.327000 26.597000 # O
1299 5 4 0.000000 30.616000 51.198000 28.900000 # O
1300 5 1 0.000000 31.584000 49.789000 26.570000 # C
1301 5 1 0.000000 32.559000 48.805000 26.309000 # C
1302 5 1 0.000000 31.911000 51.134000 26.307000 # C
1303 5 1 0.000000 33.854000 49.166000 25.951000 # C
1304 5 1 0.000000 33.224000 51.496000 25.974000 # C
1305 5 1 0.000000 34.221000 50.517000 25.868000 # C
1306 5 3 0.000000 35.619000 50.872000 25.910000 # N
1307 5 1 0.000000 36.531000 50.347000 26.767000 # C
1308 5 1 0.000000 36.265000 51.851000 25.223000 # C
1309 5 1 0.000000 37.742000 50.971000 26.621000 # C
1310 5 4 0.000000 36.279000 49.450000 27.616000 # O
1311 5 1 0.000000 37.587000 51.932000 25.632000 # C
1312 5 4 0.000000 35.724000 52.578000 24.347000 # O
1313 5 1 0.000000 38.940000 50.788000 27.318000 # C
1314 5 1 0.000000 38.646000 52.777000 25.244000 # C
1315 5 1 0.000000 39.987000 51.636000 26.948000 # C
1316 5 1 0.000000 39.853000 52.595000 25.951000 # C
1317 5 1 0.000000 41.261000 51.756000 27.453000 # C
1318 5 1 0.000000 41.069000 53.258000 25.897000 # C
1319 5 3 0.000000 41.936000 52.746000 26.816000 # N
1320 5 4 0.000000 41.721000 51.083000 28.416000 # O
1321 5 4 0.000000 41.351000 54.195000 25.104000 # O
1322 5 1 0.000000 43.272000 53.185000 27.121000 # C
1323 5 1 0.000000 43.570000 54.552000 27.258000 # C
1324 5 1 0.000000 44.275000 52.238000 27.391000 # C
1325 5 1 0.000000 44.838000 54.959000 27.693000 # C
1326 5 1 0.000000 45.537000 52.647000 27.828000 # C
1327 5 1 0.000000 45.825000 54.008000 28.002000 # C
1328 5 3 0.000000 47.100000 54.416000 28.531000 # N
1329 5 1 0.000000 47.748000 53.882000 29.595000 # C
1330 5 1 0.000000 47.909000 55.397000 28.050000 # C
1331 5 1 0.000000 48.955000 54.514000 29.798000 # C
1332 5 4 0.000000 47.296000 52.944000 30.310000 # O
1333 5 4 0.000000 47.650000 56.095000 27.039000 # O
1334 5 1 0.000000 49.059000 55.486000 28.811000 # C
1335 5 1 0.000000 49.963000 54.302000 30.752000 # C
1336 5 1 0.000000 50.181000 56.319000 28.697000 # C
1337 5 1 0.000000 51.091000 55.130000 30.636000 # C
1338 5 1 0.000000 51.193000 56.105000 29.650000 # C
1339 5 1 0.000000 52.266000 55.190000 31.363000 # C
1340 5 1 0.000000 52.419000 56.713000 29.830000 # C
1341 5 4 0.000000 52.558000 54.457000 32.348000 # O
1342 5 3 0.000000 53.077000 56.156000 30.874000 # N
1343 5 4 0.000000 52.882000 57.652000 29.127000 # O
1344 5 2 0.000000 54.029000 56.412000 31.222000 # H
1345 5 1 0.000000 53.002000 56.540000 35.843000 # C
1346 5 1 0.000000 52.960000 55.014000 37.736000 # C
1347 5 1 0.000000 54.334000 56.190000 35.595000 # C
1348 5 1 0.000000 54.289000 54.660000 37.476000 # C
1349 5 1 0.000000 54.981000 55.252000 36.412000 # C
1350 5 2 0.000000 56.014000 54.985000 36.220000 # H
1351 5 2 0.000000 48.609000 58.005000 40.263000 # H
1352 5 2 0.000000 47.061000 56.367000 35.737000 # H
1353 5 2 0.000000 42.635000 56.146000 38.391000 # H
1354 5 2 0.000000 43.652000 59.883000 40.291000 # H
1355 5 2 0.000000 40.375000 56.293000 39.308000 # H
1356 5 2 0.000000 41.381000 60.013000 41.232000 # H
1357 5 2 0.000000 37.604000 57.946000 44.705000 # H
1358 5 2 0.000000 35.483000 57.115000 40.207000 # H
1359 5 2 0.000000 31.194000 56.056000 43.476000 # H
1360 5 2 0.000000 34.505000 54.295000 45.597000 # H
1361 5 2 0.000000 29.839000 54.061000 43.950000 # H
1362 5 2 0.000000 33.200000 52.301000 46.013000 # H
1363 5 2 0.000000 31.530000 47.926000 46.472000 # H
1364 5 2 0.000000 29.868000 49.053000 41.854000 # H
1365 5 2 0.000000 31.532000 42.909000 44.206000 # H
1366 5 2 0.000000 32.918000 45.453000 41.011000 # H
1367 5 2 0.000000 33.156000 41.187000 43.534000 # H
1368 5 2 0.000000 34.544000 43.758000 40.359000 # H
1369 5 2 0.000000 38.338000 39.746000 43.585000 # H
1370 5 2 0.000000 37.615000 40.098000 38.604000 # H
1371 5 2 0.000000 42.671000 39.821000 38.733000 # H
1372 5 2 0.000000 42.557000 36.945000 41.963000 # H
1373 5 2 0.000000 45.070000 39.411000 38.461000 # H
1374 5 2 0.000000 44.992000 36.596000 41.718000 # H
1375 5 2 0.000000 49.443000 36.997000 37.094000 # H
1376 5 2 0.000000 49.706000 40.581000 40.612000 # H
1377 5 2 0.000000 53.958000 42.128000 37.526000 # H
1378 5 2 0.000000 51.060000 40.574000 34.735000 # H
1379 5 2 0.000000 54.093000 44.201000 36.200000 # H
1380 5 2 0.000000 51.178000 42.593000 33.458000 # H
1381 5 2 0.000000 49.743000 46.195000 31.303000 # H
1382 5 2 0.000000 49.886000 47.667000 36.101000 # H
1383 5 2 0.000000 45.063000 49.623000 34.872000 # H
1384 5 2 0.000000 45.104000 46.105000 32.366000 # H
1385 5 2 0.000000 42.713000 49.200000 35.414000 # H
1386 5 2 0.000000 42.740000 45.757000 32.807000 # H
1387 5 2 0.000000 38.491000 43.959000 35.021000 # H
1388 5 2 0.000000 37.471000 48.897000 35.238000 # H
1389 5 2 0.000000 32.504000 46.719000 36.577000 # H
1390 5 2 0.000000 33.869000 44.324000 33.267000 # H
1391 5 2 0.000000 30.306000 46.934000 35.507000 # H
1392 5 2 0.000000 31.759000 44.633000 32.159000 # H
1393 5 2 0.000000 29.089000 45.877000 28.879000 # H
1394 5 2 0.000000 29.710000 50.196000 31.333000 # H
1395 5 2 0.000000 32.372000 47.760000 26.515000 # H
1396 5 2 0.000000 31.175000 51.915000 26.470000 # H
1397 5 2 0.000000 34.599000 48.391000 25.846000 # H
1398 5 2 0.000000 33.484000 52.543000 25.923000 # H
1399 5 2 0.000000 39.048000 50.053000 28.105000 # H
1400 5 2 0.000000 38.537000 53.534000 24.478000 # H
1401 5 2 0.000000 42.808000 55.299000 27.077000 # H
1402 5 2 0.000000 44.071000 51.182000 27.274000 # H
1403 5 2 0.000000 45.034000 56.014000 27.827000 # H
1404 5 2 0.000000 46.289000 51.897000 28.036000 # H
1405 5 2 0.000000 49.882000 53.544000 31.521000 # H
1406 5 2 0.000000 50.267000 57.076000 27.931000 # H
1407 5 2 0.000000 52.515000 57.277000 35.212000 # H
1408 5 2 0.000000 52.432000 54.557000 38.565000 # H
1409 5 2 0.000000 54.868000 56.649000 34.775000 # H
1410 5 2 0.000000 54.785000 53.935000 38.105000 # H
1411 6 3 0.000000 47.111000 44.485000 15.926000 # N
1412 6 1 0.000000 48.387000 44.988000 16.363000 # C
1413 6 1 0.000000 46.056000 45.218000 15.501000 # C
1414 6 1 0.000000 46.722000 43.184000 15.888000 # C
1415 6 1 0.000000 44.989000 44.396000 15.195000 # C
1416 6 4 0.000000 46.058000 46.478000 15.408000 # O
1417 6 1 0.000000 45.411000 43.092000 15.448000 # C
1418 6 4 0.000000 47.443000 42.216000 16.246000 # O
1419 6 1 0.000000 43.689000 44.692000 14.763000 # C
1420 6 1 0.000000 44.558000 41.987000 15.296000 # C
1421 6 1 0.000000 42.836000 43.587000 14.617000 # C
1422 6 1 0.000000 43.251000 42.288000 14.881000 # C
1423 6 1 0.000000 41.499000 43.514000 14.293000 # C
1424 6 1 0.000000 42.141000 41.481000 14.707000 # C
1425 6 3 0.000000 41.064000 42.227000 14.336000 # N
1426 6 4 0.000000 40.762000 44.508000 14.034000 # O
1427 6 4 0.000000 42.122000 40.230000 14.867000 # O
1428 6 1 0.000000 39.707000 41.772000 14.165000 # C
1429 6 1 0.000000 39.152000 40.838000 15.056000 # C
1430 6 1 0.000000 38.888000 42.329000 13.168000 # C
1431 6 1 0.000000 37.800000 40.496000 14.973000 # C
1432 6 1 0.000000 37.532000 41.991000 13.091000 # C
1433 6 1 0.000000 36.975000 41.078000 13.995000 # C
1434 6 3 0.000000 35.566000 40.792000 13.974000 # N
1435 6 1 0.000000 34.562000 41.706000 14.058000 # C
1436 6 1 0.000000 34.983000 39.578000 14.123000 # C
1437 6 1 0.000000 33.350000 41.074000 14.253000 # C
1438 6 4 0.000000 34.737000 42.954000 14.042000 # O
1439 6 1 0.000000 33.624000 39.713000 14.286000 # C
1440 6 4 0.000000 35.615000 38.485000 14.140000 # O
1441 6 1 0.000000 32.082000 41.590000 14.573000 # C
1442 6 1 0.000000 32.657000 38.761000 14.632000 # C
1443 6 1 0.000000 31.119000 40.635000 14.947000 # C
1444 6 1 0.000000 31.396000 39.276000 14.967000 # C
1445 6 1 0.000000 29.887000 40.787000 15.557000 # C
1446 6 1 0.000000 30.321000 38.661000 15.578000 # C
1447 6 3 0.000000 29.391000 39.582000 15.948000 # N
1448 6 4 0.000000 29.330000 41.895000 15.790000 # O
1449 6 4 0.000000 30.261000 37.435000 15.863000 # O
1450 6 1 0.000000 28.373000 39.353000 16.946000 # C
1451 6 1 0.000000 27.558000 38.211000 16.883000 # C
1452 6 1 0.000000 28.360000 40.135000 18.111000 # C
1453 6 1 0.000000 26.828000 37.800000 18.008000 # C
1454 6 1 0.000000 27.652000 39.714000 19.237000 # C
1455 6 1 0.000000 26.930000 38.506000 19.222000 # C
1456 6 3 0.000000 26.529000 37.897000 20.469000 # N
1457 6 1 0.000000 26.233000 38.547000 21.628000 # C
1458 6 1 0.000000 26.858000 36.629000 20.844000 # C
1459 6 1 0.000000 26.405000 37.718000 22.716000 # C
1460 6 4 0.000000 25.916000 39.766000 21.699000 # O
1461 6 1 0.000000 26.797000 36.487000 22.214000 # C
1462 6 4 0.000000 27.287000 35.743000 20.058000 # O
1463 6 1 0.000000 26.502000 38.031000 24.083000 # C
1464 6 1 0.000000 27.305000 35.469000 23.037000 # C
1465 6 1 0.000000 27.030000 37.020000 24.903000 # C
1466 6 1 0.000000 27.415000 35.788000 24.399000 # C
1467 6 1 0.000000 27.533000 37.092000 26.187000 # C
1468 6 1 0.000000 28.136000 35.168000 25.397000 # C
1469 6 3 0.000000 28.219000 35.961000 26.495000 # N
1470 6 4 0.000000 27.471000 38.109000 26.930000 # O
1471 6 4 0.000000 28.703000 34.046000 25.281000 # O
1472 6 1 0.000000 29.191000 35.849000 27.557000 # C
1473 6 1 0.000000 28.875000 36.261000 28.862000 # C
1474 6 1 0.000000 30.511000 35.486000 27.257000 # C
1475 6 1 0.000000 29.881000 36.379000 29.829000 # C
1476 6 1 0.000000 31.517000 35.609000 28.219000 # C
1477 6 1 0.000000 31.220000 36.082000 29.505000 # C
1478 6 3 0.000000 32.284000 36.410000 30.421000 # N
1479 6 1 0.000000 32.426000 37.592000 31.075000 # C
1480 6 1 0.000000 33.444000 35.729000 30.616000 # C
1481 6 1 0.000000 33.663000 37.664000 31.681000 # C
1482 6 4 0.000000 31.571000 38.517000 31.071000 # O
1483 6 1 0.000000 34.318000 36.474000 31.389000 # C
1484 6 4 0.000000 33.694000 34.593000 30.130000 # O
1485 6 1 0.000000 34.294000 38.722000 32.352000 # C
1486 6 1 0.000000 35.656000 36.253000 31.750000 # C
1487 6 1 0.000000 35.631000 38.504000 32.708000 # C
1488 6 1 0.000000 36.287000 37.317000 32.418000 # C
1489 6 1 0.000000 36.572000 39.356000 33.244000 # C
1490 6 1 0.000000 37.601000 37.500000 32.795000 # C
1491 6 3 0.000000 37.787000 38.751000 33.300000 # N
1492 6 4 0.000000 36.356000 40.555000 33.575000 # O
1493 6 4 0.000000 38.509000 36.633000 32.683000 # O
1494 6 1 0.000000 39.044000 39.372000 33.650000 # C
1495 6 1 0.000000 40.197000 39.108000 32.888000 # C
1496 6 1 0.000000 39.119000 40.305000 34.707000 # C
1497 6 1 0.000000 41.391000 39.773000 33.161000 # C
1498 6 1 0.000000 40.319000 40.983000 34.967000 # C
1499 6 1 0.000000 41.455000 40.725000 34.184000 # C
1500 6 3 0.000000 42.645000 41.512000 34.333000 # N
1501 6 1 0.000000 43.820000 41.062000 34.838000 # C
1502 6 1 0.000000 42.957000 42.565000 33.542000 # C
1503 6 1 0.000000 44.871000 41.836000 34.388000 # C
1504 6 4 0.000000 43.938000 40.010000 35.521000 # O
1505 6 1 0.000000 44.318000 42.795000 33.553000 # C
1506 6 4 0.000000 42.129000 43.166000 32.809000 # O
1507 6 1 0.000000 46.255000 41.595000 34.436000 # C
1508 6 1 0.000000 45.097000 43.566000 32.682000 # C
1509 6 1 0.000000 47.033000 42.356000 33.549000 # C
1510 6 1 0.000000 46.472000 43.297000 32.697000 # C
1511 6 1 0.000000 48.317000 42.135000 33.084000 # C
1512 6 1 0.000000 47.428000 43.587000 31.748000 # C
1513 6 3 0.000000 48.562000 42.868000 31.960000 # N
1514 6 4 0.000000 49.122000 41.296000 33.571000 # O
1515 6 4 0.000000 47.225000 44.308000 30.731000 # O
1516 6 1 0.000000 49.467000 42.497000 30.895000 # C
1517 6 1 0.000000 49.944000 43.462000 29.989000 # C
1518 6 1 0.000000 49.627000 41.139000 30.575000 # C
1519 6 1 0.000000 50.415000 43.076000 28.725000 # C
1520 6 1 0.000000 50.086000 40.756000 29.319000 # C
1521 6 1 0.000000 50.406000 41.721000 28.346000 # C
1522 6 3 0.000000 50.366000 41.350000 26.949000 # N
1523 6 1 0.000000 50.649000 40.110000 26.464000 # C
1524 6 1 0.000000 49.436000 41.857000 26.097000 # C
1525 6 1 0.000000 49.861000 39.809000 25.366000 # C
1526 6 4 0.000000 51.430000 39.296000 27.024000 # O
1527 6 1 0.000000 49.088000 40.936000 25.138000 # C
1528 6 4 0.000000 48.849000 42.959000 26.267000 # O
1529 6 1 0.000000 49.523000 38.551000 24.833000 # C
1530 6 1 0.000000 47.915000 40.890000 24.370000 # C
1531 6 1 0.000000 48.313000 38.499000 24.117000 # C
1532 6 1 0.000000 47.538000 39.627000 23.902000 # C
1533 6 1 0.000000 47.501000 37.416000 23.845000 # C
1534 6 1 0.000000 46.290000 39.181000 23.526000 # C
1535 6 3 0.000000 46.248000 37.824000 23.497000 # N
1536 6 4 0.000000 47.841000 36.207000 23.983000 # O
1537 6 4 0.000000 45.281000 39.923000 23.382000 # O
1538 6 1 0.000000 45.038000 37.032000 23.519000 # C
1539 6 1 0.000000 43.940000 37.383000 22.716000 # C
1540 6 1 0.000000 44.879000 36.000000 24.464000 # C
1541 6 1 0.000000 42.689000 36.784000 22.915000 # C
1542 6 1 0.000000 43.636000 35.385000 24.643000 # C
1543 6 1 0.000000 42.514000 35.801000 23.903000 # C
1544 6 3 0.000000 41.210000 35.243000 24.176000 # N
1545 6 1 0.000000 40.719000 34.851000 25.387000 # C
1546 6 1 0.000000 40.239000 34.943000 23.275000 # C
1547 6 1 0.000000 39.463000 34.300000 25.253000 # C
1548 6 4 0.000000 41.328000 34.987000 26.481000 # O
1549 6 1 0.000000 39.152000 34.368000 23.902000 # C
1550 6 4 0.000000 40.350000 35.107000 22.029000 # O
1551 6 1 0.000000 38.616000 33.675000 26.188000 # C
1552 6 1 0.000000 37.969000 33.824000 23.382000 # C
1553 6 1 0.000000 37.441000 33.117000 25.662000 # C
1554 6 1 0.000000 37.124000 33.200000 24.316000 # C
1555 6 1 0.000000 36.493000 32.290000 26.236000 # C
1556 6 1 0.000000 35.999000 32.425000 24.131000 # C
1557 6 3 0.000000 35.603000 31.863000 25.303000 # N
1558 6 4 0.000000 36.482000 31.921000 27.441000 # O
1559 6 4 0.000000 35.465000 32.183000 23.013000 # O
1560 6 1 0.000000 34.739000 30.711000 25.398000 # C
1561 6 1 0.000000 33.491000 30.699000 24.753000 # C
1562 6 1 0.000000 35.258000 29.505000 25.887000 # C
1563 6 1 0.000000 32.852000 29.486000 24.474000 # C
1564 6 1 0.000000 34.646000 28.296000 25.566000 # C
1565 6 1 0.000000 33.478000 28.263000 24.780000 # C
1566 6 3 0.000000 33.145000 27.066000 24.035000 # N
1567 6 1 0.000000 33.520000 25.799000 24.376000 # C
1568 6 1 0.000000 33.062000 27.052000 22.676000 # C
1569 6 1 0.000000 33.748000 25.026000 23.254000 # C
1570 6 4 0.000000 33.753000 25.421000 25.557000 # O
1571 6 1 0.000000 33.441000 25.831000 22.166000 # C
1572 6 4 0.000000 32.836000 28.073000 21.972000 # O
1573 6 1 0.000000 34.572000 23.892000 23.129000 # C
1574 6 1 0.000000 33.927000 25.566000 20.883000 # C
1575 6 1 0.000000 35.131000 23.681000 21.857000 # C
1576 6 1 0.000000 34.822000 24.496000 20.777000 # C
1577 6 1 0.000000 36.321000 23.057000 21.536000 # C
1578 6 1 0.000000 35.844000 24.346000 19.866000 # C
1579 6 3 0.000000 36.790000 23.486000 20.331000 # N
1580 6 4 0.000000 36.956000 22.292000 22.311000 # O
1581 6 4 0.000000 35.970000 25.048000 18.824000 # O
1582 6 1 0.000000 38.189000 23.586000 19.960000 # C
1583 6 1 0.000000 39.161000 23.824000 20.953000 # C
1584 6 1 0.000000 38.559000 23.760000 18.611000 # C
1585 6 1 0.000000 40.400000 24.362000 20.617000 # C
1586 6 1 0.000000 39.797000 24.330000 18.281000 # C
1587 6 1 0.000000 40.695000 24.704000 19.290000 # C
1588 6 3 0.000000 41.776000 25.620000 19.021000 # N
1589 6 1 0.000000 42.014000 26.768000 19.703000 # C
1590 6 1 0.000000 42.669000 25.598000 17.995000 # C
1591 6 1 0.000000 43.049000 27.461000 19.133000 # C
1592 6 4 0.000000 41.338000 27.164000 20.691000 # O
1593 6 1 0.000000 43.481000 26.721000 18.041000 # C
1594 6 4 0.000000 42.732000 24.684000 17.129000 # O
1595 6 1 0.000000 43.600000 28.701000 19.473000 # C
1596 6 1 0.000000 44.530000 27.163000 17.212000 # C
1597 6 1 0.000000 44.629000 29.150000 18.641000 # C
1598 6 1 0.000000 45.082000 28.416000 17.551000 # C
1599 6 1 0.000000 45.343000 30.326000 18.659000 # C
1600 6 1 0.000000 46.064000 29.190000 16.955000 # C
1601 6 3 0.000000 46.228000 30.362000 17.631000 # N
1602 6 4 0.000000 45.161000 31.267000 19.479000 # O
1603 6 4 0.000000 46.730000 28.862000 15.937000 # O
1604 6 1 0.000000 47.101000 31.461000 17.311000 # C
1605 6 1 0.000000 47.208000 31.937000 15.992000 # C
1606 6 1 0.000000 47.777000 32.140000 18.339000 # C
1607 6 1 0.000000 47.949000 33.094000 15.717000 # C
1608 6 1 0.000000 48.512000 33.294000 18.061000 # C
1609 6 1 0.000000 48.589000 33.794000 16.753000 # C
1610 6 3 0.000000 49.280000 35.028000 16.489000 # N
1611 6 1 0.000000 49.183000 36.182000 17.195000 # C
1612 6 1 0.000000 50.180000 35.267000 15.499000 # C
1613 6 1 0.000000 50.006000 37.150000 16.662000 # C
1614 6 4 0.000000 48.428000 36.347000 18.194000 # O
1615 6 4 0.000000 50.551000 34.411000 14.658000 # O
1616 6 1 0.000000 50.643000 36.567000 15.574000 # C
1617 6 1 0.000000 50.251000 38.475000 17.054000 # C
1618 6 1 0.000000 51.581000 37.262000 14.796000 # C
1619 6 1 0.000000 51.194000 39.171000 16.281000 # C
1620 6 1 0.000000 51.830000 38.588000 15.190000 # C
1621 6 1 0.000000 51.699000 40.455000 16.382000 # C
1622 6 1 0.000000 52.682000 39.546000 14.679000 # C
1623 6 4 0.000000 51.372000 41.306000 17.255000 # O
1624 6 3 0.000000 52.606000 40.686000 15.405000 # N
1625 6 4 0.000000 53.439000 39.397000 13.681000 # O
1626 6 2 0.000000 53.152000 41.564000 15.250000 # H
1627 6 1 0.000000 49.564000 44.625000 15.684000 # C
1628 6 1 0.000000 48.455000 45.884000 17.444000 # C
1629 6 1 0.000000 50.792000 45.173000 16.070000 # C
1630 6 1 0.000000 49.688000 46.421000 17.832000 # C
1631 6 1 0.000000 50.857000 46.075000 17.142000 # C
1632 6 2 0.000000 51.808000 46.500000 17.438000 # H
1633 6 2 0.000000 43.351000 45.706000 14.584000 # H
1634 6 2 0.000000 44.874000 40.976000 15.517000 # H
1635 6 2 0.000000 39.751000 40.407000 15.847000 # H
1636 6 2 0.000000 39.295000 43.036000 12.458000 # H
1637 6 2 0.000000 37.387000 39.805000 15.701000 # H
1638 6 2 0.000000 36.909000 42.445000 12.331000 # H
1639 6 2 0.000000 31.883000 42.652000 14.633000 # H
1640 6 2 0.000000 32.901000 37.715000 14.741000 # H
1641 6 2 0.000000 27.550000 37.597000 15.990000 # H
1642 6 2 0.000000 29.000000 41.002000 18.196000 # H
1643 6 2 0.000000 26.254000 36.886000 17.953000 # H
1644 6 2 0.000000 27.778000 40.275000 20.153000 # H
1645 6 2 0.000000 26.325000 39.033000 24.453000 # H
1646 6 2 0.000000 27.711000 34.548000 22.631000 # H
1647 6 2 0.000000 27.861000 36.543000 29.115000 # H
1648 6 2 0.000000 30.789000 35.197000 26.248000 # H
1649 6 2 0.000000 29.627000 36.740000 30.818000 # H
1650 6 2 0.000000 32.542000 35.414000 27.927000 # H
1651 6 2 0.000000 33.800000 39.667000 32.534000 # H
1652 6 2 0.000000 36.184000 35.346000 31.483000 # H
1653 6 2 0.000000 40.167000 38.423000 32.050000 # H
1654 6 2 0.000000 38.251000 40.508000 35.320000 # H
1655 6 2 0.000000 42.267000 39.581000 32.550000 # H
1656 6 2 0.000000 40.360000 41.718000 35.765000 # H
1657 6 2 0.000000 46.674000 40.769000 34.995000 # H
1658 6 2 0.000000 44.654000 44.207000 31.932000 # H
1659 6 2 0.000000 49.847000 44.517000 30.222000 # H
1660 6 2 0.000000 49.249000 40.366000 31.229000 # H
1661 6 2 0.000000 50.672000 43.837000 28.001000 # H
1662 6 2 0.000000 50.033000 39.708000 29.068000 # H
1663 6 2 0.000000 50.040000 37.650000 25.138000 # H
1664 6 2 0.000000 47.235000 41.735000 24.328000 # H
1665 6 2 0.000000 44.034000 38.161000 21.966000 # H
1666 6 2 0.000000 45.692000 35.713000 25.115000 # H
1667 6 2 0.000000 41.844000 37.130000 22.328000 # H
1668 6 2 0.000000 43.547000 34.605000 25.389000 # H
1669 6 2 0.000000 38.885000 33.573000 27.233000 # H
1670 6 2 0.000000 37.760000 33.826000 22.319000 # H
1671 6 2 0.000000 33.060000 31.620000 24.382000 # H
1672 6 2 0.000000 36.217000 29.482000 26.385000 # H
1673 6 2 0.000000 31.930000 29.494000 23.907000 # H
1674 6 2 0.000000 35.178000 27.392000 25.816000 # H
1675 6 2 0.000000 34.952000 23.379000 24.003000 # H
1676 6 2 0.000000 33.828000 26.293000 20.090000 # H
1677 6 2 0.000000 38.927000 23.729000 22.003000 # H
1678 6 2 0.000000 37.844000 23.560000 17.821000 # H
1679 6 2 0.000000 41.088000 24.615000 21.411000 # H
1680 6 2 0.000000 39.998000 24.590000 17.252000 # H
1681 6 2 0.000000 43.242000 29.285000 20.311000 # H
1682 6 2 0.000000 44.873000 26.597000 16.355000 # H
1683 6 2 0.000000 46.678000 31.443000 15.187000 # H
1684 6 2 0.000000 47.722000 31.778000 19.356000 # H
1685 6 2 0.000000 47.988000 33.463000 14.701000 # H
1686 6 2 0.000000 49.018000 33.803000 18.872000 # H
1687 6 2 0.000000 49.754000 38.929000 17.902000 # H
1688 6 2 0.000000 52.079000 36.812000 13.949000 # H
1689 6 2 0.000000 49.524000 43.938000 14.843000 # H
1690 6 2 0.000000 47.553000 46.161000 17.977000 # H
1691 6 2 0.000000 51.693000 44.907000 15.536000 # H
1692 6 2 0.000000 49.736000 47.113000 18.660000 # H
1693 7 3 0.000000 28.734000 24.360000 25.879000 # N
1694 7 1 0.000000 28.656000 23.241000 24.975000 # C
1695 7 1 0.000000 29.859000 24.898000 26.403000 # C
1696 7 1 0.000000 27.690000 25.060000 26.393000 # C
1697 7 1 0.000000 29.544000 25.939000 27.256000 # C
1698 7 4 0.000000 31.028000 24.493000 26.145000 # O
1699 7 1 0.000000 28.154000 26.040000 27.257000 # C
1700 7 4 0.000000 26.480000 24.816000 26.147000 # O
1701 7 1 0.000000 30.355000 26.759000 28.051000 # C
1702 7 1 0.000000 27.472000 26.967000 28.061000 # C
1703 7 1 0.000000 29.672000 27.681000 28.859000 # C
1704 7 1 0.000000 28.287000 27.776000 28.870000 # C
1705 7 1 0.000000 30.135000 28.572000 29.803000 # C
1706 7 1 0.000000 27.969000 28.722000 29.827000 # C
1707 7 3 0.000000 29.099000 29.223000 30.397000 # N
1708 7 4 0.000000 31.351000 28.734000 30.111000 # O
1709 7 4 0.000000 26.798000 29.078000 30.133000 # O
1710 7 1 0.000000 29.184000 30.144000 31.502000 # C
1711 7 1 0.000000 28.306000 30.029000 32.593000 # C
1712 7 1 0.000000 30.207000 31.106000 31.552000 # C
1713 7 1 0.000000 28.470000 30.834000 33.722000 # C
1714 7 1 0.000000 30.375000 31.906000 32.688000 # C
1715 7 1 0.000000 29.514000 31.773000 33.784000 # C
1716 7 3 0.000000 29.733000 32.533000 34.985000 # N
1717 7 1 0.000000 30.883000 32.568000 35.711000 # C
1718 7 1 0.000000 28.789000 33.137000 35.746000 # C
1719 7 1 0.000000 30.669000 33.196000 36.923000 # C
1720 7 4 0.000000 31.964000 32.027000 35.354000 # O
1721 7 1 0.000000 29.330000 33.565000 36.937000 # C
1722 7 4 0.000000 27.577000 33.255000 35.412000 # O
1723 7 1 0.000000 31.488000 33.312000 38.059000 # C
1724 7 1 0.000000 28.706000 34.083000 38.078000 # C
1725 7 1 0.000000 30.854000 33.806000 39.213000 # C
1726 7 1 0.000000 29.519000 34.182000 39.217000 # C
1727 7 1 0.000000 31.259000 33.809000 40.535000 # C
1728 7 1 0.000000 29.174000 34.407000 40.535000 # C
1729 7 3 0.000000 30.236000 34.175000 41.353000 # N
1730 7 4 0.000000 32.399000 33.449000 40.940000 # O
1731 7 4 0.000000 28.010000 34.670000 40.939000 # O
1732 7 1 0.000000 30.129000 33.914000 42.769000 # C
1733 7 1 0.000000 29.380000 34.765000 43.596000 # C
1734 7 1 0.000000 30.564000 32.680000 43.278000 # C
1735 7 1 0.000000 28.980000 34.341000 44.872000 # C
1736 7 1 0.000000 30.148000 32.248000 44.537000 # C
1737 7 1 0.000000 29.295000 33.046000 45.324000 # C
1738 7 3 0.000000 28.575000 32.450000 46.427000 # N
1739 7 1 0.000000 28.987000 31.399000 47.187000 # C
1740 7 1 0.000000 27.220000 32.481000 46.563000 # C
1741 7 1 0.000000 27.912000 30.757000 47.765000 # C
1742 7 4 0.000000 30.186000 31.020000 47.288000 # O
1743 7 1 0.000000 26.781000 31.456000 47.373000 # C
1744 7 4 0.000000 26.459000 33.261000 45.930000 # O
1745 7 1 0.000000 27.834000 29.491000 48.368000 # C
1746 7 1 0.000000 25.485000 30.950000 47.561000 # C
1747 7 1 0.000000 26.538000 28.975000 48.537000 # C
1748 7 1 0.000000 25.409000 29.678000 48.150000 # C
1749 7 1 0.000000 26.124000 27.685000 48.800000 # C
1750 7 1 0.000000 24.361000 28.784000 48.192000 # C
1751 7 3 0.000000 24.789000 27.558000 48.584000 # N
1752 7 4 0.000000 26.891000 26.724000 49.084000 # O
1753 7 4 0.000000 23.177000 29.050000 47.844000 # O
1754 7 1 0.000000 24.104000 26.305000 48.368000 # C
1755 7 1 0.000000 24.271000 25.236000 49.263000 # C
1756 7 1 0.000000 23.402000 26.092000 47.174000 # C
1757 7 1 0.000000 23.805000 23.957000 48.931000 # C
1758 7 1 0.000000 22.942000 24.816000 46.838000 # C
1759 7 1 0.000000 23.162000 23.731000 47.698000 # C
1760 7 3 0.000000 22.882000 22.387000 47.256000 # N
1761 7 1 0.000000 23.751000 21.344000 47.297000 # C
1762 7 1 0.000000 21.823000 21.967000 46.513000 # C
1763 7 1 0.000000 23.254000 20.271000 46.588000 # C
1764 7 4 0.000000 24.882000 21.380000 47.851000 # O
1765 7 1 0.000000 22.021000 20.666000 46.083000 # C
1766 7 4 0.000000 20.823000 22.680000 46.231000 # O
1767 7 1 0.000000 23.842000 19.043000 46.253000 # C
1768 7 1 0.000000 21.282000 19.857000 45.207000 # C
1769 7 1 0.000000 23.107000 18.237000 45.373000 # C
1770 7 1 0.000000 21.876000 18.629000 44.870000 # C
1771 7 1 0.000000 23.437000 17.056000 44.744000 # C
1772 7 1 0.000000 21.509000 17.663000 43.955000 # C
1773 7 3 0.000000 22.463000 16.695000 43.868000 # N
1774 7 4 0.000000 24.520000 16.430000 44.904000 # O
1775 7 4 0.000000 20.441000 17.675000 43.286000 # O
1776 7 1 0.000000 22.520000 15.611000 42.915000 # C
1777 7 1 0.000000 22.075000 15.809000 41.595000 # C
1778 7 1 0.000000 23.089000 14.368000 43.268000 # C
1779 7 1 0.000000 22.212000 14.798000 40.644000 # C
1780 7 1 0.000000 23.239000 13.360000 42.304000 # C
1781 7 1 0.000000 22.810000 13.580000 40.985000 # C
1782 7 3 0.000000 23.089000 12.625000 39.952000 # N
1783 7 1 0.000000 22.163000 11.860000 39.325000 # C
1784 7 1 0.000000 24.134000 12.723000 39.096000 # C
1785 7 1 0.000000 22.621000 11.457000 38.087000 # C
1786 7 4 0.000000 21.001000 11.656000 39.767000 # O
1787 7 1 0.000000 23.882000 12.016000 37.939000 # C
1788 7 4 0.000000 25.137000 13.459000 39.290000 # O
1789 7 1 0.000000 21.925000 10.887000 37.007000 # C
1790 7 1 0.000000 24.532000 12.075000 36.700000 # C
1791 7 1 0.000000 22.569000 10.965000 35.763000 # C
1792 7 1 0.000000 23.820000 11.547000 35.614000 # C
1793 7 1 0.000000 22.048000 10.847000 34.487000 # C
1794 7 1 0.000000 23.991000 11.774000 34.267000 # C
1795 7 3 0.000000 22.903000 11.367000 33.560000 # N
1796 7 4 0.000000 20.895000 10.412000 34.220000 # O
1797 7 4 0.000000 24.961000 12.413000 33.769000 # O
1798 7 1 0.000000 22.518000 11.961000 32.299000 # C
1799 7 1 0.000000 23.454000 12.111000 31.260000 # C
1800 7 1 0.000000 21.305000 12.665000 32.217000 # C
1801 7 1 0.000000 23.250000 13.068000 30.254000 # C
1802 7 1 0.000000 21.105000 13.620000 31.226000 # C
1803 7 1 0.000000 22.111000 13.895000 30.280000 # C
1804 7 3 0.000000 22.124000 15.183000 29.623000 # N
1805 7 1 0.000000 21.016000 15.919000 29.331000 # C
1806 7 1 0.000000 23.104000 16.096000 29.852000 # C
1807 7 1 0.000000 21.274000 17.275000 29.442000 # C
1808 7 4 0.000000 19.878000 15.426000 29.119000 # O
1809 7 1 0.000000 22.615000 17.379000 29.775000 # C
1810 7 4 0.000000 24.264000 15.803000 30.248000 # O
1811 7 1 0.000000 20.371000 18.337000 29.641000 # C
1812 7 1 0.000000 23.153000 18.544000 30.340000 # C
1813 7 1 0.000000 20.904000 19.479000 30.266000 # C
1814 7 1 0.000000 22.243000 19.571000 30.607000 # C
1815 7 1 0.000000 20.257000 20.476000 30.969000 # C
1816 7 1 0.000000 22.349000 20.607000 31.511000 # C
1817 7 3 0.000000 21.135000 21.166000 31.751000 # N
1818 7 4 0.000000 19.010000 20.672000 30.960000 # O
1819 7 4 0.000000 23.399000 20.895000 32.146000 # O
1820 7 1 0.000000 20.817000 21.993000 32.894000 # C
1821 7 1 0.000000 21.700000 23.002000 33.313000 # C
1822 7 1 0.000000 19.703000 21.695000 33.702000 # C
1823 7 1 0.000000 21.528000 23.632000 34.554000 # C
1824 7 1 0.000000 19.519000 22.342000 34.928000 # C
1825 7 1 0.000000 20.454000 23.286000 35.390000 # C
1826 7 3 0.000000 20.319000 23.865000 36.708000 # N
1827 7 1 0.000000 19.836000 23.257000 37.828000 # C
1828 7 1 0.000000 20.591000 25.143000 37.076000 # C
1829 7 1 0.000000 19.790000 24.139000 38.886000 # C
1830 7 4 0.000000 19.490000 22.046000 37.890000 # O
1831 7 1 0.000000 20.282000 25.344000 38.406000 # C
1832 7 4 0.000000 21.004000 26.038000 36.287000 # O
1833 7 1 0.000000 19.281000 24.002000 40.191000 # C
1834 7 1 0.000000 20.312000 26.504000 39.193000 # C
1835 7 1 0.000000 19.296000 25.167000 40.972000 # C
1836 7 1 0.000000 19.803000 26.366000 40.497000 # C
1837 7 1 0.000000 18.723000 25.445000 42.200000 # C
1838 7 1 0.000000 19.521000 27.317000 41.455000 # C
1839 7 3 0.000000 18.860000 26.762000 42.504000 # N
1840 7 4 0.000000 18.101000 24.617000 42.917000 # O
1841 7 4 0.000000 19.750000 28.552000 41.336000 # O
1842 7 1 0.000000 18.080000 27.512000 43.459000 # C
1843 7 1 0.000000 18.645000 28.598000 44.147000 # C
1844 7 1 0.000000 16.690000 27.342000 43.490000 # C
1845 7 1 0.000000 17.823000 29.573000 44.724000 # C
1846 7 1 0.000000 15.873000 28.337000 44.022000 # C
1847 7 1 0.000000 16.426000 29.510000 44.571000 # C
1848 7 3 0.000000 15.628000 30.717000 44.642000 # N
1849 7 1 0.000000 14.267000 30.756000 44.722000 # C
1850 7 1 0.000000 15.972000 31.859000 43.983000 # C
1851 7 1 0.000000 13.757000 31.854000 44.057000 # C
1852 7 4 0.000000 13.560000 29.840000 45.226000 # O
1853 7 1 0.000000 14.856000 32.565000 43.595000 # C
1854 7 4 0.000000 17.147000 32.140000 43.624000 # O
1855 7 1 0.000000 12.478000 32.016000 43.494000 # C
1856 7 1 0.000000 14.761000 33.483000 42.546000 # C
1857 7 1 0.000000 12.405000 32.873000 42.383000 # C
1858 7 1 0.000000 13.511000 33.575000 41.925000 # C
1859 7 1 0.000000 11.514000 32.835000 41.328000 # C
1860 7 1 0.000000 13.250000 33.908000 40.614000 # C
1861 7 3 0.000000 12.037000 33.435000 40.222000 # N
1862 7 4 0.000000 10.416000 32.215000 41.344000 # O
1863 7 4 0.000000 14.098000 34.427000 39.834000 # O
1864 7 1 0.000000 11.746000 33.068000 38.849000 # C
1865 7 1 0.000000 11.395000 31.738000 38.539000 # C
1866 7 1 0.000000 12.105000 33.924000 37.789000 # C
1867 7 1 0.000000 11.549000 31.247000 37.246000 # C
1868 7 1 0.000000 12.287000 33.418000 36.495000 # C
1869 7 1 0.000000 12.081000 32.057000 36.233000 # C
1870 7 3 0.000000 12.615000 31.439000 35.044000 # N
1871 7 1 0.000000 13.415000 30.344000 35.026000 # C
1872 7 1 0.000000 12.542000 31.875000 33.758000 # C
1873 7 1 0.000000 13.835000 30.076000 33.749000 # C
1874 7 4 0.000000 13.765000 29.699000 36.051000 # O
1875 7 1 0.000000 13.279000 31.045000 32.927000 # C
1876 7 4 0.000000 11.898000 32.894000 33.390000 # O
1877 7 1 0.000000 14.695000 29.081000 33.274000 # C
1878 7 1 0.000000 13.528000 31.076000 31.541000 # C
1879 7 1 0.000000 14.959000 29.120000 31.902000 # C
1880 7 1 0.000000 14.401000 30.076000 31.062000 # C
1881 7 1 0.000000 15.784000 28.337000 31.128000 # C
1882 7 1 0.000000 14.918000 29.822000 29.801000 # C
1883 7 3 0.000000 15.766000 28.755000 29.838000 # N
1884 7 4 0.000000 16.504000 27.398000 31.565000 # O
1885 7 4 0.000000 14.641000 30.470000 28.758000 # O
1886 7 1 0.000000 16.550000 28.204000 28.763000 # C
1887 7 1 0.000000 17.265000 29.040000 27.888000 # C
1888 7 1 0.000000 16.692000 26.810000 28.645000 # C
1889 7 1 0.000000 18.135000 28.489000 26.938000 # C
1890 7 1 0.000000 17.562000 26.265000 27.699000 # C
1891 7 1 0.000000 18.306000 27.097000 26.850000 # C
1892 7 3 0.000000 19.261000 26.529000 25.935000 # N
1893 7 1 0.000000 20.173000 25.563000 26.206000 # C
1894 7 1 0.000000 19.413000 26.834000 24.619000 # C
1895 7 1 0.000000 20.905000 25.256000 25.081000 # C
1896 7 4 0.000000 20.336000 25.033000 27.340000 # O
1897 7 4 0.000000 18.712000 27.673000 24.001000 # O
1898 7 1 0.000000 20.422000 26.070000 24.064000 # C
1899 7 1 0.000000 21.934000 24.324000 24.871000 # C
1900 7 1 0.000000 20.927000 26.013000 22.756000 # C
1901 7 1 0.000000 22.436000 24.260000 23.561000 # C
1902 7 1 0.000000 21.955000 25.078000 22.545000 # C
1903 7 1 0.000000 23.410000 23.463000 22.988000 # C
1904 7 1 0.000000 22.662000 24.743000 21.408000 # C
1905 7 4 0.000000 24.084000 22.580000 23.589000 # O
1906 7 3 0.000000 23.550000 23.756000 21.675000 # N
1907 7 4 0.000000 22.513000 25.265000 20.270000 # O
1908 7 2 0.000000 24.204000 23.302000 20.996000 # H
1909 7 1 0.000000 28.093000 23.399000 23.697000 # C
1910 7 1 0.000000 29.188000 21.996000 25.353000 # C
1911 7 1 0.000000 28.085000 22.327000 22.798000 # C
1912 7 1 0.000000 29.168000 20.924000 24.455000 # C
1913 7 1 0.000000 28.625000 21.088000 23.173000 # C
1914 7 2 0.000000 28.621000 20.259000 22.475000 # H
1915 7 2 0.000000 31.435000 26.670000 28.068000 # H
1916 7 2 0.000000 26.393000 27.032000 28.084000 # H
1917 7 2 0.000000 27.521000 29.285000 32.593000 # H
1918 7 2 0.000000 30.885000 31.228000 30.718000 # H
1919 7 2 0.000000 27.805000 30.695000 34.568000 # H
1920 7 2 0.000000 31.181000 32.628000 32.721000 # H
1921 7 2 0.000000 32.507000 32.948000 38.082000 # H
1922 7 2 0.000000 27.645000 34.283000 38.106000 # H
1923 7 2 0.000000 29.039000 35.724000 43.223000 # H
1924 7 2 0.000000 31.117000 31.994000 42.652000 # H
1925 7 2 0.000000 28.355000 34.991000 45.467000 # H
1926 7 2 0.000000 30.395000 31.238000 44.833000 # H
1927 7 2 0.000000 28.717000 28.890000 48.550000 # H
1928 7 2 0.000000 24.607000 31.446000 47.158000 # H
1929 7 2 0.000000 24.807000 25.380000 50.192000 # H
1930 7 2 0.000000 23.288000 26.893000 46.449000 # H
1931 7 2 0.000000 23.980000 23.135000 49.614000 # H
1932 7 2 0.000000 22.490000 24.665000 45.866000 # H
1933 7 2 0.000000 24.825000 18.758000 46.605000 # H
1934 7 2 0.000000 20.343000 20.180000 44.775000 # H
1935 7 2 0.000000 21.665000 16.760000 41.281000 # H
1936 7 2 0.000000 23.419000 14.186000 44.282000 # H
1937 7 2 0.000000 21.890000 14.971000 39.623000 # H
1938 7 2 0.000000 23.701000 12.417000 42.578000 # H
1939 7 2 0.000000 20.896000 10.562000 37.096000 # H
1940 7 2 0.000000 25.445000 12.636000 36.559000 # H
1941 7 2 0.000000 24.390000 11.565000 31.293000 # H
1942 7 2 0.000000 20.571000 12.600000 33.008000 # H
1943 7 2 0.000000 24.030000 13.248000 29.528000 # H
1944 7 2 0.000000 20.230000 14.245000 31.306000 # H
1945 7 2 0.000000 19.303000 18.201000 29.525000 # H
1946 7 2 0.000000 24.161000 18.561000 30.741000 # H
1947 7 2 0.000000 22.557000 23.269000 32.705000 # H
1948 7 2 0.000000 19.011000 20.912000 33.427000 # H
1949 7 2 0.000000 22.269000 24.354000 34.881000 # H
1950 7 2 0.000000 18.658000 22.077000 35.530000 # H
1951 7 2 0.000000 18.845000 23.075000 40.546000 # H
1952 7 2 0.000000 20.640000 27.455000 38.796000 # H
1953 7 2 0.000000 19.718000 28.741000 44.153000 # H
1954 7 2 0.000000 16.226000 26.517000 42.968000 # H
1955 7 2 0.000000 18.279000 30.443000 45.181000 # H
1956 7 2 0.000000 14.810000 28.240000 43.864000 # H
1957 7 2 0.000000 11.672000 31.334000 43.733000 # H
1958 7 2 0.000000 15.647000 33.893000 42.084000 # H
1959 7 2 0.000000 11.135000 31.031000 39.313000 # H
1960 7 2 0.000000 12.354000 34.961000 37.989000 # H
1961 7 2 0.000000 11.356000 30.200000 37.062000 # H
1962 7 2 0.000000 12.704000 34.060000 35.733000 # H
1963 7 2 0.000000 15.146000 28.342000 33.924000 # H
1964 7 2 0.000000 13.104000 31.829000 30.889000 # H
1965 7 2 0.000000 17.189000 30.116000 27.975000 # H
1966 7 2 0.000000 16.136000 26.151000 29.297000 # H
1967 7 2 0.000000 18.703000 29.151000 26.299000 # H
1968 7 2 0.000000 17.658000 25.189000 27.633000 # H
1969 7 2 0.000000 22.310000 23.690000 25.663000 # H
1970 7 2 0.000000 20.554000 26.644000 21.962000 # H
1971 7 2 0.000000 27.684000 24.358000 23.391000 # H
1972 7 2 0.000000 29.615000 21.865000 26.341000 # H
1973 7 2 0.000000 27.668000 22.454000 21.809000 # H
1974 7 2 0.000000 29.581000 19.969000 24.746000 # H
1975 8 3 0.000000 12.700000 29.954000 9.404000 # N
1976 8 1 0.000000 13.643000 30.326000 8.382000 # C
1977 8 1 0.000000 12.237000 30.741000 10.402000 # C
1978 8 1 0.000000 12.125000 28.734000 9.571000 # C
1979 8 1 0.000000 11.370000 30.034000 11.212000 # C
1980 8 4 0.000000 12.564000 31.951000 10.562000 # O
1981 8 1 0.000000 11.302000 28.745000 10.687000 # C
1982 8 4 0.000000 12.350000 27.736000 8.838000 # O
1983 8 1 0.000000 10.684000 30.405000 12.377000 # C
1984 8 1 0.000000 10.547000 27.728000 11.293000 # C
1985 8 1 0.000000 9.935000 29.386000 12.986000 # C
1986 8 1 0.000000 9.875000 28.098000 12.470000 # C
1987 8 1 0.000000 9.214000 29.373000 14.160000 # C
1988 8 1 0.000000 9.119000 27.357000 13.359000 # C
1989 8 3 0.000000 8.702000 28.136000 14.395000 # N
1990 8 4 0.000000 9.082000 30.360000 14.939000 # O
1991 8 4 0.000000 8.850000 26.130000 13.235000 # O
1992 8 1 0.000000 7.988000 27.711000 15.572000 # C
1993 8 1 0.000000 8.313000 26.498000 16.203000 # C
1994 8 1 0.000000 7.027000 28.547000 16.165000 # C
1995 8 1 0.000000 7.716000 26.147000 17.415000 # C
1996 8 1 0.000000 6.435000 28.198000 17.384000 # C
1997 8 1 0.000000 6.779000 27.000000 18.023000 # C
1998 8 3 0.000000 6.238000 26.677000 19.315000 # N
1999 8 1 0.000000 6.305000 27.456000 20.429000 # C
2000 8 1 0.000000 5.799000 25.464000 19.731000 # C
2001 8 1 0.000000 5.905000 26.742000 21.542000 # C
2002 8 4 0.000000 6.750000 28.635000 20.443000 # O
2003 8 1 0.000000 5.575000 25.471000 21.088000 # C
2004 8 4 0.000000 5.651000 24.466000 18.972000 # O
2005 8 1 0.000000 5.973000 27.053000 22.911000 # C
2006 8 1 0.000000 5.281000 24.417000 21.961000 # C
2007 8 1 0.000000 5.705000 25.986000 23.787000 # C
2008 8 1 0.000000 5.365000 24.722000 23.327000 # C
2009 8 1 0.000000 5.925000 25.856000 25.145000 # C
2010 8 1 0.000000 5.384000 23.883000 24.424000 # C
2011 8 3 0.000000 5.733000 24.570000 25.545000 # N
2012 8 4 0.000000 6.325000 26.783000 25.902000 # O
2013 8 4 0.000000 5.223000 22.634000 24.376000 # O
2014 8 1 0.000000 6.241000 23.956000 26.748000 # C
2015 8 1 0.000000 5.566000 22.875000 27.337000 # C
2016 8 1 0.000000 7.536000 24.273000 27.191000 # C
2017 8 1 0.000000 6.217000 22.060000 28.275000 # C
2018 8 1 0.000000 8.191000 23.449000 28.105000 # C
2019 8 1 0.000000 7.565000 22.294000 28.609000 # C
2020 8 3 0.000000 8.362000 21.265000 29.238000 # N
2021 8 1 0.000000 9.521000 21.448000 29.927000 # C
2022 8 1 0.000000 8.385000 19.962000 28.837000 # C
2023 8 1 0.000000 10.278000 20.296000 29.934000 # C
2024 8 4 0.000000 9.884000 22.547000 30.429000 # O
2025 8 1 0.000000 9.547000 19.342000 29.244000 # C
2026 8 4 0.000000 7.524000 19.433000 28.086000 # O
2027 8 1 0.000000 11.633000 20.108000 30.256000 # C
2028 8 1 0.000000 10.107000 18.122000 28.832000 # C
2029 8 1 0.000000 12.199000 18.897000 29.826000 # C
2030 8 1 0.000000 11.465000 17.942000 29.141000 # C
2031 8 1 0.000000 13.525000 18.532000 29.704000 # C
2032 8 1 0.000000 12.375000 17.042000 28.633000 # C
2033 8 3 0.000000 13.642000 17.396000 28.967000 # N
2034 8 4 0.000000 14.502000 19.215000 30.114000 # O
2035 8 4 0.000000 12.080000 16.060000 27.896000 # O
2036 8 1 0.000000 14.852000 16.959000 28.312000 # C
2037 8 1 0.000000 16.058000 16.868000 29.026000 # C
2038 8 1 0.000000 14.868000 16.786000 26.921000 # C
2039 8 1 0.000000 17.268000 16.680000 28.346000 # C
2040 8 1 0.000000 16.074000 16.605000 26.241000 # C
2041 8 1 0.000000 17.289000 16.578000 26.941000 # C
2042 8 3 0.000000 18.540000 16.608000 26.224000 # N
2043 8 1 0.000000 19.554000 17.486000 26.441000 # C
2044 8 1 0.000000 18.846000 15.954000 25.072000 # C
2045 8 1 0.000000 20.496000 17.393000 25.438000 # C
2046 8 4 0.000000 19.590000 18.313000 27.390000 # O
2047 8 1 0.000000 20.046000 16.415000 24.560000 # C
2048 8 4 0.000000 18.118000 15.077000 24.535000 # O
2049 8 1 0.000000 21.632000 18.172000 25.175000 # C
2050 8 1 0.000000 20.705000 16.141000 23.351000 # C
2051 8 1 0.000000 22.287000 17.902000 23.966000 # C
2052 8 1 0.000000 21.841000 16.926000 23.088000 # C
2053 8 1 0.000000 23.331000 18.551000 23.342000 # C
2054 8 1 0.000000 22.638000 17.023000 21.967000 # C
2055 8 3 0.000000 23.554000 18.020000 22.111000 # N
2056 8 4 0.000000 23.951000 19.543000 23.814000 # O
2057 8 4 0.000000 22.533000 16.293000 20.944000 # O
2058 8 1 0.000000 24.451000 18.533000 21.102000 # C
2059 8 1 0.000000 24.034000 18.608000 19.760000 # C
2060 8 1 0.000000 25.724000 19.033000 21.453000 # C
2061 8 1 0.000000 24.858000 19.186000 18.796000 # C
2062 8 1 0.000000 26.542000 19.628000 20.482000 # C
2063 8 1 0.000000 26.103000 19.715000 19.152000 # C
2064 8 3 0.000000 26.855000 20.451000 18.176000 # N
2065 8 1 0.000000 27.518000 19.905000 17.128000 # C
2066 8 1 0.000000 26.585000 21.729000 17.822000 # C
2067 8 1 0.000000 27.687000 20.834000 16.121000 # C
2068 8 4 0.000000 27.824000 18.686000 17.044000 # O
2069 8 1 0.000000 27.082000 22.001000 16.564000 # C
2070 8 4 0.000000 25.871000 22.513000 18.502000 # O
2071 8 1 0.000000 28.073000 20.655000 14.782000 # C
2072 8 1 0.000000 26.791000 23.065000 15.702000 # C
2073 8 1 0.000000 27.763000 21.715000 13.915000 # C
2074 8 1 0.000000 27.135000 22.870000 14.358000 # C
2075 8 1 0.000000 27.665000 21.731000 12.535000 # C
2076 8 1 0.000000 26.671000 23.521000 13.236000 # C
2077 8 3 0.000000 26.971000 22.825000 12.107000 # N
2078 8 4 0.000000 28.073000 20.811000 11.776000 # O
2079 8 4 0.000000 25.932000 24.546000 13.261000 # O
2080 8 1 0.000000 26.173000 22.897000 10.904000 # C
2081 8 1 0.000000 25.821000 24.140000 10.349000 # C
2082 8 1 0.000000 25.494000 21.748000 10.464000 # C
2083 8 1 0.000000 24.707000 24.250000 9.502000 # C
2084 8 1 0.000000 24.384000 21.857000 9.632000 # C
2085 8 1 0.000000 23.924000 23.118000 9.209000 # C
2086 8 3 0.000000 22.541000 23.264000 8.815000 # N
2087 8 1 0.000000 21.790000 22.290000 8.231000 # C
2088 8 1 0.000000 21.660000 23.998000 9.545000 # C
2089 8 1 0.000000 20.469000 22.364000 8.640000 # C
2090 8 4 0.000000 22.264000 21.367000 7.518000 # O
2091 8 1 0.000000 20.395000 23.462000 9.481000 # C
2092 8 4 0.000000 21.991000 24.941000 10.313000 # O
2093 8 1 0.000000 19.480000 21.363000 8.632000 # C
2094 8 1 0.000000 19.336000 23.639000 10.383000 # C
2095 8 1 0.000000 18.453000 21.513000 9.582000 # C
2096 8 1 0.000000 18.392000 22.608000 10.428000 # C
2097 8 1 0.000000 17.611000 20.561000 10.121000 # C
2098 8 1 0.000000 17.530000 22.268000 11.449000 # C
2099 8 3 0.000000 17.050000 21.010000 11.279000 # N
2100 8 4 0.000000 17.445000 19.399000 9.656000 # O
2101 8 4 0.000000 17.335000 22.968000 12.480000 # O
2102 8 1 0.000000 16.444000 20.208000 12.320000 # C
2103 8 1 0.000000 15.505000 20.771000 13.200000 # C
2104 8 1 0.000000 16.906000 18.902000 12.573000 # C
2105 8 1 0.000000 15.108000 20.085000 14.355000 # C
2106 8 1 0.000000 16.489000 18.208000 13.713000 # C
2107 8 1 0.000000 15.620000 18.809000 14.643000 # C
2108 8 3 0.000000 15.286000 18.131000 15.875000 # N
2109 8 1 0.000000 16.092000 17.314000 16.610000 # C
2110 8 1 0.000000 14.086000 18.127000 16.511000 # C
2111 8 1 0.000000 15.411000 16.791000 17.688000 # C
2112 8 4 0.000000 17.302000 17.081000 16.346000 # O
2113 8 1 0.000000 14.129000 17.319000 17.629000 # C
2114 8 4 0.000000 13.057000 18.727000 16.094000 # O
2115 8 1 0.000000 15.788000 15.838000 18.653000 # C
2116 8 1 0.000000 13.127000 16.943000 18.534000 # C
2117 8 1 0.000000 14.778000 15.450000 19.547000 # C
2118 8 1 0.000000 13.503000 15.991000 19.498000 # C
2119 8 1 0.000000 14.735000 14.431000 20.481000 # C
2120 8 1 0.000000 12.743000 15.282000 20.403000 # C
2121 8 3 0.000000 13.489000 14.323000 21.012000 # N
2122 8 4 0.000000 15.690000 13.659000 20.761000 # O
2123 8 4 0.000000 11.501000 15.427000 20.574000 # O
2124 8 1 0.000000 12.937000 13.175000 21.689000 # C
2125 8 1 0.000000 11.976000 13.337000 22.702000 # C
2126 8 1 0.000000 13.141000 11.899000 21.149000 # C
2127 8 1 0.000000 11.137000 12.273000 23.055000 # C
2128 8 1 0.000000 12.274000 10.856000 21.466000 # C
2129 8 1 0.000000 11.204000 11.051000 22.360000 # C
2130 8 3 0.000000 10.047000 10.182000 22.299000 # N
2131 8 1 0.000000 10.053000 8.895000 21.847000 # C
2132 8 1 0.000000 8.799000 10.647000 22.010000 # C
2133 8 1 0.000000 8.867000 8.580000 21.213000 # C
2134 8 4 0.000000 11.059000 8.134000 21.888000 # O
2135 8 1 0.000000 8.061000 9.704000 21.331000 # C
2136 8 4 0.000000 8.432000 11.840000 22.186000 # O
2137 8 1 0.000000 8.637000 7.603000 20.227000 # C
2138 8 1 0.000000 6.975000 9.934000 20.483000 # C
2139 8 1 0.000000 7.600000 7.882000 19.321000 # C
2140 8 1 0.000000 6.804000 9.012000 19.445000 # C
2141 8 1 0.000000 7.472000 7.467000 18.010000 # C
2142 8 1 0.000000 6.251000 9.241000 18.204000 # C
2143 8 3 0.000000 6.675000 8.315000 17.302000 # N
2144 8 4 0.000000 8.110000 6.506000 17.501000 # O
2145 8 4 0.000000 5.584000 10.271000 17.907000 # O
2146 8 1 0.000000 6.801000 8.603000 15.886000 # C
2147 8 1 0.000000 8.063000 8.517000 15.263000 # C
2148 8 1 0.000000 5.763000 9.260000 15.195000 # C
2149 8 1 0.000000 8.315000 9.194000 14.074000 # C
2150 8 1 0.000000 6.029000 9.965000 14.013000 # C
2151 8 1 0.000000 7.327000 9.997000 13.486000 # C
2152 8 3 0.000000 7.713000 10.997000 12.520000 # N
2153 8 1 0.000000 8.770000 11.837000 12.648000 # C
2154 8 1 0.000000 7.059000 11.380000 11.391000 # C
2155 8 1 0.000000 8.800000 12.734000 11.612000 # C
2156 8 4 0.000000 9.578000 11.827000 13.617000 # O
2157 8 1 0.000000 7.713000 12.449000 10.797000 # C
2158 8 4 0.000000 6.007000 10.836000 10.962000 # O
2159 8 1 0.000000 9.675000 13.796000 11.364000 # C
2160 8 1 0.000000 7.433000 13.203000 9.641000 # C
2161 8 1 0.000000 9.389000 14.557000 10.227000 # C
2162 8 1 0.000000 8.313000 14.277000 9.393000 # C
2163 8 1 0.000000 10.005000 15.680000 9.726000 # C
2164 8 1 0.000000 8.330000 15.256000 8.412000 # C
2165 8 3 0.000000 9.366000 16.118000 8.612000 # N
2166 8 4 0.000000 10.990000 16.261000 10.260000 # O
2167 8 4 0.000000 7.514000 15.340000 7.456000 # O
2168 8 1 0.000000 9.702000 17.298000 7.858000 # C
2169 8 1 0.000000 8.709000 18.214000 7.471000 # C
2170 8 1 0.000000 11.049000 17.598000 7.592000 # C
2171 8 1 0.000000 9.064000 19.425000 6.863000 # C
2172 8 1 0.000000 11.399000 18.808000 6.989000 # C
2173 8 1 0.000000 10.414000 19.741000 6.637000 # C
2174 8 3 0.000000 10.790000 21.019000 6.092000 # N
2175 8 1 0.000000 11.767000 21.842000 6.545000 # C
2176 8 1 0.000000 10.254000 21.633000 5.003000 # C
2177 8 1 0.000000 11.855000 22.971000 5.762000 # C
2178 8 4 0.000000 12.485000 21.608000 7.557000 # O
2179 8 4 0.000000 9.336000 21.148000 4.296000 # O
2180 8 1 0.000000 10.885000 22.841000 4.775000 # C
2181 8 1 0.000000 12.712000 24.081000 5.830000 # C
2182 8 1 0.000000 10.700000 23.808000 3.776000 # C
2183 8 1 0.000000 12.532000 25.048000 4.827000 # C
2184 8 1 0.000000 11.560000 24.918000 3.842000 # C
2185 8 1 0.000000 13.194000 26.233000 4.564000 # C
2186 8 1 0.000000 11.673000 26.032000 3.035000 # C
2187 8 4 0.000000 14.153000 26.704000 5.237000 # O
2188 8 3 0.000000 12.671000 26.836000 3.472000 # N
2189 8 4 0.000000 10.962000 26.281000 2.024000 # O
2190 8 2 0.000000 12.984000 27.736000 3.041000 # H
2191 8 1 0.000000 13.275000 30.280000 7.026000 # C
2192 8 1 0.000000 14.923000 30.782000 8.741000 # C
2193 8 1 0.000000 14.173000 30.710000 6.042000 # C
2194 8 1 0.000000 15.820000 31.202000 7.753000 # C
2195 8 1 0.000000 15.445000 31.175000 6.403000 # C
2196 8 2 0.000000 16.138000 31.511000 5.641000 # H
2197 8 2 0.000000 10.751000 31.400000 12.800000 # H
2198 8 2 0.000000 10.512000 26.720000 10.903000 # H
2199 8 2 0.000000 9.063000 25.841000 15.782000 # H
2200 8 2 0.000000 6.745000 29.478000 15.691000 # H
2201 8 2 0.000000 8.017000 25.225000 17.903000 # H
2202 8 2 0.000000 5.713000 28.863000 17.840000 # H
2203 8 2 0.000000 6.312000 28.015000 23.273000 # H
2204 8 2 0.000000 5.113000 23.411000 21.602000 # H
2205 8 2 0.000000 4.564000 22.618000 27.013000 # H
2206 8 2 0.000000 8.088000 25.082000 26.733000 # H
2207 8 2 0.000000 5.696000 21.200000 28.671000 # H
2208 8 2 0.000000 9.232000 23.654000 28.315000 # H
2209 8 2 0.000000 12.236000 20.905000 30.674000 # H
2210 8 2 0.000000 9.568000 17.423000 28.199000 # H
2211 8 2 0.000000 16.068000 16.996000 30.100000 # H
2212 8 2 0.000000 13.954000 16.887000 26.342000 # H
2213 8 2 0.000000 18.195000 16.655000 28.908000 # H
2214 8 2 0.000000 16.062000 16.572000 25.159000 # H
2215 8 2 0.000000 21.953000 18.968000 25.834000 # H
2216 8 2 0.000000 20.332000 15.412000 22.642000 # H
2217 8 2 0.000000 23.053000 18.264000 19.461000 # H
2218 8 2 0.000000 26.074000 18.967000 22.475000 # H
2219 8 2 0.000000 24.515000 19.262000 17.769000 # H
2220 8 2 0.000000 27.509000 20.033000 20.767000 # H
2221 8 2 0.000000 28.432000 19.703000 14.411000 # H
2222 8 2 0.000000 26.193000 23.910000 16.017000 # H
2223 8 2 0.000000 26.343000 25.039000 10.660000 # H
2224 8 2 0.000000 25.713000 20.778000 10.886000 # H
2225 8 2 0.000000 24.385000 25.228000 9.175000 # H
2226 8 2 0.000000 23.802000 20.965000 9.459000 # H
2227 8 2 0.000000 19.617000 20.436000 8.088000 # H
2228 8 2 0.000000 19.367000 24.412000 11.144000 # H
2229 8 2 0.000000 15.116000 21.768000 13.023000 # H
2230 8 2 0.000000 17.644000 18.440000 11.933000 # H
2231 8 2 0.000000 14.438000 20.578000 15.053000 # H
2232 8 2 0.000000 16.876000 17.210000 13.883000 # H
2233 8 2 0.000000 16.772000 15.385000 18.663000 # H
2234 8 2 0.000000 12.113000 17.311000 18.447000 # H
2235 8 2 0.000000 11.812000 14.309000 23.148000 # H
2236 8 2 0.000000 13.871000 11.744000 20.368000 # H
2237 8 2 0.000000 10.351000 12.441000 23.780000 # H
2238 8 2 0.000000 12.366000 9.946000 20.893000 # H
2239 8 2 0.000000 9.369000 6.831000 20.025000 # H
2240 8 2 0.000000 6.470000 10.889000 20.472000 # H
2241 8 2 0.000000 8.901000 8.046000 15.756000 # H
2242 8 2 0.000000 4.772000 9.321000 15.633000 # H
2243 8 2 0.000000 9.317000 9.180000 13.671000 # H
2244 8 2 0.000000 5.253000 10.582000 13.583000 # H
2245 8 2 0.000000 10.506000 14.029000 12.016000 # H
2246 8 2 0.000000 6.587000 12.993000 9.000000 # H
2247 8 2 0.000000 7.666000 18.015000 7.685000 # H
2248 8 2 0.000000 11.826000 16.897000 7.866000 # H
2249 8 2 0.000000 8.287000 20.133000 6.607000 # H
2250 8 2 0.000000 12.445000 19.018000 6.802000 # H
2251 8 2 0.000000 13.467000 24.183000 6.599000 # H
2252 8 2 0.000000 9.947000 23.711000 3.007000 # H
2253 8 2 0.000000 12.287000 29.934000 6.735000 # H
2254 8 2 0.000000 15.216000 30.812000 9.785000 # H
2255 8 2 0.000000 13.882000 30.691000 5.001000 # H
2256 8 2 0.000000 16.801000 31.556000 8.033000 # H
2257 9 3 0.000000 18.552000 54.634000 23.245000 # N
2258 9 1 0.000000 17.414000 55.378000 22.768000 # C
2259 9 1 0.000000 19.849000 54.855000 22.933000 # C
2260 9 1 0.000000 18.527000 53.556000 24.071000 # C
2261 9 1 0.000000 20.659000 53.922000 23.551000 # C
2262 9 4 0.000000 20.250000 55.785000 22.177000 # O
2263 9 1 0.000000 19.814000 53.084000 24.275000 # C
2264 9 4 0.000000 17.477000 53.043000 24.540000 # O
2265 9 1 0.000000 22.046000 53.722000 23.497000 # C
2266 9 1 0.000000 20.293000 51.977000 24.994000 # C
2267 9 1 0.000000 22.523000 52.612000 24.211000 # C
2268 9 1 0.000000 21.681000 51.769000 24.923000 # C
2269 9 1 0.000000 23.790000 52.080000 24.313000 # C
2270 9 1 0.000000 22.477000 50.756000 25.426000 # C
2271 9 3 0.000000 23.775000 50.947000 25.063000 # N
2272 9 4 0.000000 24.820000 52.551000 23.751000 # O
2273 9 4 0.000000 22.066000 49.789000 26.124000 # O
2274 9 1 0.000000 24.885000 50.058000 25.300000 # C
2275 9 1 0.000000 24.724000 48.668000 25.172000 # C
2276 9 1 0.000000 26.167000 50.572000 25.561000 # C
2277 9 1 0.000000 25.825000 47.815000 25.270000 # C
2278 9 1 0.000000 27.271000 49.716000 25.651000 # C
2279 9 1 0.000000 27.111000 48.333000 25.500000 # C
2280 9 3 0.000000 28.252000 47.458000 25.507000 # N
2281 9 1 0.000000 29.347000 47.564000 24.706000 # C
2282 9 1 0.000000 28.343000 46.248000 26.110000 # C
2283 9 1 0.000000 30.129000 46.429000 24.806000 # C
2284 9 4 0.000000 29.563000 48.528000 23.925000 # O
2285 9 1 0.000000 29.486000 45.595000 25.712000 # C
2286 9 4 0.000000 27.476000 45.784000 26.902000 # O
2287 9 1 0.000000 31.238000 46.004000 24.055000 # C
2288 9 1 0.000000 29.902000 44.278000 25.944000 # C
2289 9 1 0.000000 31.637000 44.672000 24.268000 # C
2290 9 1 0.000000 30.998000 43.848000 25.182000 # C
2291 9 1 0.000000 32.489000 43.859000 23.545000 # C
2292 9 1 0.000000 31.494000 42.575000 24.982000 # C
2293 9 3 0.000000 32.407000 42.570000 23.974000 # N
2294 9 4 0.000000 33.192000 44.239000 22.568000 # O
2295 9 4 0.000000 31.073000 41.539000 25.564000 # O
2296 9 1 0.000000 32.804000 41.391000 23.242000 # C
2297 9 1 0.000000 33.202000 40.230000 23.923000 # C
2298 9 1 0.000000 32.555000 41.320000 21.862000 # C
2299 9 1 0.000000 33.246000 38.997000 23.255000 # C
2300 9 1 0.000000 32.576000 40.091000 21.203000 # C
2301 9 1 0.000000 32.856000 38.903000 21.905000 # C
2302 9 3 0.000000 32.507000 37.628000 21.322000 # N
2303 9 1 0.000000 32.468000 37.331000 19.994000 # C
2304 9 1 0.000000 31.702000 36.706000 21.920000 # C
2305 9 1 0.000000 31.627000 36.264000 19.753000 # C
2306 9 4 0.000000 33.064000 37.990000 19.099000 # O
2307 9 1 0.000000 31.144000 35.859000 20.987000 # C
2308 9 4 0.000000 31.403000 36.709000 23.144000 # O
2309 9 1 0.000000 31.065000 35.813000 18.547000 # C
2310 9 1 0.000000 30.069000 34.964000 21.113000 # C
2311 9 1 0.000000 29.977000 34.934000 18.673000 # C
2312 9 1 0.000000 29.499000 34.525000 19.908000 # C
2313 9 1 0.000000 29.030000 34.555000 17.743000 # C
2314 9 1 0.000000 28.284000 33.919000 19.673000 # C
2315 9 3 0.000000 27.984000 33.937000 18.350000 # N
2316 9 4 0.000000 29.067000 34.845000 16.516000 # O
2317 9 4 0.000000 27.519000 33.473000 20.573000 # O
2318 9 1 0.000000 26.672000 33.775000 17.770000 # C
2319 9 1 0.000000 26.520000 33.225000 16.487000 # C
2320 9 1 0.000000 25.553000 34.322000 18.414000 # C
2321 9 1 0.000000 25.284000 33.289000 15.832000 # C
2322 9 1 0.000000 24.321000 34.393000 17.760000 # C
2323 9 1 0.000000 24.179000 33.904000 16.453000 # C
2324 9 3 0.000000 22.975000 34.171000 15.706000 # N
2325 9 1 0.000000 22.921000 34.722000 14.465000 # C
2326 9 1 0.000000 21.696000 34.157000 16.169000 # C
2327 9 1 0.000000 21.623000 35.056000 14.141000 # C
2328 9 4 0.000000 23.927000 34.954000 13.744000 # O
2329 9 1 0.000000 20.836000 34.698000 15.228000 # C
2330 9 4 0.000000 21.356000 33.741000 17.308000 # O
2331 9 1 0.000000 21.105000 35.750000 13.037000 # C
2332 9 1 0.000000 19.468000 35.005000 15.291000 # C
2333 9 1 0.000000 19.740000 36.063000 13.102000 # C
2334 9 1 0.000000 18.954000 35.705000 14.186000 # C
2335 9 1 0.000000 18.952000 36.834000 12.276000 # C
2336 9 1 0.000000 17.716000 36.275000 13.969000 # C
2337 9 3 0.000000 17.707000 36.974000 12.800000 # N
2338 9 4 0.000000 19.347000 37.392000 11.215000 # O
2339 9 4 0.000000 16.729000 36.170000 14.746000 # O
2340 9 1 0.000000 16.657000 37.836000 12.308000 # C
2341 9 1 0.000000 15.903000 38.613000 13.208000 # C
2342 9 1 0.000000 16.421000 37.969000 10.923000 # C
2343 9 1 0.000000 14.952000 39.515000 12.736000 # C
2344 9 1 0.000000 15.474000 38.891000 10.452000 # C
2345 9 1 0.000000 14.745000 39.675000 11.361000 # C
2346 9 3 0.000000 13.884000 40.726000 10.901000 # N
2347 9 1 0.000000 12.532000 40.719000 10.983000 # C
2348 9 1 0.000000 14.248000 42.028000 10.841000 # C
2349 9 1 0.000000 12.036000 42.006000 10.957000 # C
2350 9 4 0.000000 11.842000 39.683000 11.181000 # O
2351 9 1 0.000000 13.137000 42.845000 10.873000 # C
2352 9 4 0.000000 15.441000 42.429000 10.877000 # O
2353 9 1 0.000000 10.753000 42.487000 11.271000 # C
2354 9 1 0.000000 13.050000 44.220000 11.122000 # C
2355 9 1 0.000000 10.671000 43.863000 11.540000 # C
2356 9 1 0.000000 11.780000 44.694000 11.479000 # C
2357 9 1 0.000000 9.694000 44.578000 12.209000 # C
2358 9 1 0.000000 11.435000 45.859000 12.126000 # C
2359 9 3 0.000000 10.161000 45.799000 12.598000 # N
2360 9 4 0.000000 8.554000 44.128000 12.509000 # O
2361 9 4 0.000000 12.241000 46.798000 12.381000 # O
2362 9 1 0.000000 9.717000 46.539000 13.757000 # C
2363 9 1 0.000000 9.961000 47.920000 13.864000 # C
2364 9 1 0.000000 9.320000 45.836000 14.907000 # C
2365 9 1 0.000000 9.969000 48.544000 15.122000 # C
2366 9 1 0.000000 9.337000 46.451000 16.155000 # C
2367 9 1 0.000000 9.745000 47.792000 16.290000 # C
2368 9 3 0.000000 10.253000 48.246000 17.565000 # N
2369 9 1 0.000000 9.852000 47.772000 18.777000 # C
2370 9 1 0.000000 11.555000 48.594000 17.736000 # C
2371 9 1 0.000000 10.902000 47.755000 19.679000 # C
2372 9 4 0.000000 8.711000 47.291000 19.003000 # O
2373 9 1 0.000000 11.989000 48.285000 19.003000 # C
2374 9 4 0.000000 12.309000 48.989000 16.806000 # O
2375 9 1 0.000000 11.052000 46.992000 20.852000 # C
2376 9 1 0.000000 13.307000 48.085000 19.441000 # C
2377 9 1 0.000000 12.378000 46.741000 21.250000 # C
2378 9 1 0.000000 13.461000 47.265000 20.563000 # C
2379 9 1 0.000000 12.879000 45.732000 22.048000 # C
2380 9 1 0.000000 14.566000 46.542000 20.961000 # C
2381 9 3 0.000000 14.222000 45.590000 21.865000 # N
2382 9 4 0.000000 12.180000 44.981000 22.784000 # O
2383 9 4 0.000000 15.710000 46.646000 20.441000 # O
2384 9 1 0.000000 15.028000 44.437000 22.199000 # C
2385 9 1 0.000000 16.410000 44.568000 22.413000 # C
2386 9 1 0.000000 14.474000 43.142000 22.152000 # C
2387 9 1 0.000000 17.233000 43.436000 22.483000 # C
2388 9 1 0.000000 15.294000 42.014000 22.248000 # C
2389 9 1 0.000000 16.690000 42.146000 22.369000 # C
2390 9 3 0.000000 17.539000 40.978000 22.350000 # N
2391 9 1 0.000000 17.346000 39.830000 21.640000 # C
2392 9 1 0.000000 18.665000 40.768000 23.081000 # C
2393 9 1 0.000000 18.326000 38.904000 21.925000 # C
2394 9 4 0.000000 16.405000 39.648000 20.822000 # O
2395 9 1 0.000000 19.176000 39.509000 22.841000 # C
2396 9 4 0.000000 19.135000 41.591000 23.914000 # O
2397 9 1 0.000000 18.486000 37.565000 21.522000 # C
2398 9 1 0.000000 20.255000 38.826000 23.419000 # C
2399 9 1 0.000000 19.557000 36.879000 22.114000 # C
2400 9 1 0.000000 20.415000 37.489000 23.016000 # C
2401 9 1 0.000000 19.897000 35.538000 22.098000 # C
2402 9 1 0.000000 21.238000 36.497000 23.505000 # C
2403 9 3 0.000000 20.930000 35.297000 22.948000 # N
2404 9 4 0.000000 19.299000 34.643000 21.444000 # O
2405 9 4 0.000000 22.094000 36.654000 24.419000 # O
2406 9 1 0.000000 21.303000 34.022000 23.511000 # C
2407 9 1 0.000000 22.644000 33.744000 23.824000 # C
2408 9 1 0.000000 20.304000 33.176000 24.010000 # C
2409 9 1 0.000000 22.961000 32.732000 24.737000 # C
2410 9 1 0.000000 20.616000 32.202000 24.955000 # C
2411 9 1 0.000000 21.941000 32.023000 25.398000 # C
2412 9 3 0.000000 22.192000 31.415000 26.689000 # N
2413 9 1 0.000000 21.362000 30.534000 27.318000 # C
2414 9 1 0.000000 22.826000 32.078000 27.696000 # C
2415 9 1 0.000000 21.409000 30.694000 28.690000 # C
2416 9 4 0.000000 20.561000 29.764000 26.721000 # O
2417 9 1 0.000000 22.359000 31.677000 28.928000 # C
2418 9 4 0.000000 23.608000 33.051000 27.519000 # O
2419 9 1 0.000000 20.423000 30.369000 29.640000 # C
2420 9 1 0.000000 22.397000 32.403000 30.121000 # C
2421 9 1 0.000000 20.409000 31.161000 30.800000 # C
2422 9 1 0.000000 21.361000 32.146000 31.025000 # C
2423 9 1 0.000000 19.337000 31.473000 31.612000 # C
2424 9 1 0.000000 20.815000 33.018000 31.942000 # C
2425 9 3 0.000000 19.558000 32.634000 32.292000 # N
2426 9 4 0.000000 18.246000 30.842000 31.627000 # O
2427 9 4 0.000000 21.342000 34.116000 32.275000 # O
2428 9 1 0.000000 18.535000 33.580000 32.697000 # C
2429 9 1 0.000000 17.352000 33.698000 31.939000 # C
2430 9 1 0.000000 18.827000 34.589000 33.636000 # C
2431 9 1 0.000000 16.578000 34.853000 32.008000 # C
2432 9 1 0.000000 18.062000 35.763000 33.680000 # C
2433 9 1 0.000000 16.975000 35.931000 32.811000 # C
2434 9 3 0.000000 16.419000 37.239000 32.561000 # N
2435 9 1 0.000000 16.261000 37.798000 31.336000 # C
2436 9 1 0.000000 16.070000 38.196000 33.462000 # C
2437 9 1 0.000000 15.806000 39.086000 31.449000 # C
2438 9 4 0.000000 16.548000 37.228000 30.248000 # O
2439 9 1 0.000000 15.674000 39.351000 32.805000 # C
2440 9 4 0.000000 16.112000 38.043000 34.712000 # O
2441 9 1 0.000000 15.548000 40.041000 30.461000 # C
2442 9 1 0.000000 15.242000 40.606000 33.277000 # C
2443 9 1 0.000000 15.136000 41.292000 30.928000 # C
2444 9 1 0.000000 14.987000 41.571000 32.281000 # C
2445 9 1 0.000000 14.852000 42.451000 30.244000 # C
2446 9 1 0.000000 14.611000 42.904000 32.354000 # C
2447 9 3 0.000000 14.527000 43.447000 31.107000 # N
2448 9 4 0.000000 14.940000 42.590000 28.993000 # O
2449 9 4 0.000000 14.366000 43.533000 33.417000 # O
2450 9 1 0.000000 14.225000 44.808000 30.746000 # C
2451 9 1 0.000000 14.819000 45.884000 31.428000 # C
2452 9 1 0.000000 13.410000 45.072000 29.632000 # C
2453 9 1 0.000000 14.628000 47.197000 30.979000 # C
2454 9 1 0.000000 13.225000 46.382000 29.185000 # C
2455 9 1 0.000000 13.847000 47.454000 29.840000 # C
2456 9 3 0.000000 13.717000 48.791000 29.323000 # N
2457 9 1 0.000000 13.840000 49.179000 28.029000 # C
2458 9 1 0.000000 13.422000 49.915000 30.027000 # C
2459 9 1 0.000000 13.632000 50.535000 27.906000 # C
2460 9 4 0.000000 14.123000 48.403000 27.075000 # O
2461 9 4 0.000000 13.204000 49.939000 31.264000 # O
2462 9 1 0.000000 13.366000 51.009000 29.184000 # C
2463 9 1 0.000000 13.639000 51.374000 26.780000 # C
2464 9 1 0.000000 13.082000 52.359000 29.437000 # C
2465 9 1 0.000000 13.349000 52.725000 27.030000 # C
2466 9 1 0.000000 13.086000 53.200000 28.311000 # C
2467 9 1 0.000000 13.242000 53.814000 26.184000 # C
2468 9 1 0.000000 12.840000 54.552000 28.182000 # C
2469 9 4 0.000000 13.406000 53.791000 24.933000 # O
2470 9 3 0.000000 12.932000 54.930000 26.885000 # N
2471 9 4 0.000000 12.560000 55.340000 29.125000 # O
2472 9 2 0.000000 12.780000 55.890000 26.500000 # H
2473 9 1 0.000000 16.577000 56.053000 23.675000 # C
2474 9 1 0.000000 17.164000 55.469000 21.388000 # C
2475 9 1 0.000000 15.516000 56.831000 23.200000 # C
2476 9 1 0.000000 16.095000 56.240000 20.919000 # C
2477 9 1 0.000000 15.274000 56.930000 21.822000 # C
2478 9 2 0.000000 14.453000 57.535000 21.456000 # H
2479 9 2 0.000000 22.704000 54.360000 22.919000 # H
2480 9 2 0.000000 19.638000 51.309000 25.536000 # H
2481 9 2 0.000000 23.754000 48.244000 24.951000 # H
2482 9 2 0.000000 26.316000 51.636000 25.682000 # H
2483 9 2 0.000000 25.679000 46.750000 25.124000 # H
2484 9 2 0.000000 28.256000 50.128000 25.832000 # H
2485 9 2 0.000000 31.691000 46.617000 23.287000 # H
2486 9 2 0.000000 29.344000 43.609000 26.583000 # H
2487 9 2 0.000000 33.404000 40.266000 24.987000 # H
2488 9 2 0.000000 32.218000 42.193000 21.320000 # H
2489 9 2 0.000000 33.500000 38.108000 23.815000 # H
2490 9 2 0.000000 32.248000 40.063000 20.173000 # H
2491 9 2 0.000000 31.354000 36.232000 17.591000 # H
2492 9 2 0.000000 29.621000 34.730000 22.075000 # H
2493 9 2 0.000000 27.370000 32.795000 15.973000 # H
2494 9 2 0.000000 25.650000 34.785000 19.391000 # H
2495 9 2 0.000000 25.195000 32.899000 14.825000 # H
2496 9 2 0.000000 23.502000 34.909000 18.246000 # H
2497 9 2 0.000000 21.728000 36.075000 12.214000 # H
2498 9 2 0.000000 18.863000 34.769000 16.157000 # H
2499 9 2 0.000000 16.080000 38.560000 14.274000 # H
2500 9 2 0.000000 16.974000 37.368000 10.214000 # H
2501 9 2 0.000000 14.395000 40.128000 13.437000 # H
2502 9 2 0.000000 15.318000 39.005000 9.384000 # H
2503 9 2 0.000000 9.920000 41.821000 11.456000 # H
2504 9 2 0.000000 13.929000 44.846000 11.197000 # H
2505 9 2 0.000000 10.252000 48.488000 12.987000 # H
2506 9 2 0.000000 9.151000 44.769000 14.875000 # H
2507 9 2 0.000000 10.269000 49.580000 15.197000 # H
2508 9 2 0.000000 9.184000 45.826000 17.021000 # H
2509 9 2 0.000000 10.219000 46.454000 21.289000 # H
2510 9 2 0.000000 14.154000 48.365000 18.824000 # H
2511 9 2 0.000000 16.866000 45.551000 22.473000 # H
2512 9 2 0.000000 13.420000 42.996000 21.968000 # H
2513 9 2 0.000000 18.306000 43.574000 22.574000 # H
2514 9 2 0.000000 14.835000 41.034000 22.193000 # H
2515 9 2 0.000000 17.790000 37.077000 20.851000 # H
2516 9 2 0.000000 20.878000 39.283000 24.178000 # H
2517 9 2 0.000000 23.436000 34.372000 23.436000 # H
2518 9 2 0.000000 19.263000 33.365000 23.788000 # H
2519 9 2 0.000000 23.994000 32.587000 25.024000 # H
2520 9 2 0.000000 19.792000 31.698000 25.436000 # H
2521 9 2 0.000000 19.584000 29.738000 29.379000 # H
2522 9 2 0.000000 23.022000 33.277000 30.220000 # H
2523 9 2 0.000000 17.090000 32.966000 31.188000 # H
2524 9 2 0.000000 19.715000 34.515000 34.255000 # H
2525 9 2 0.000000 15.728000 34.948000 31.349000 # H
2526 9 2 0.000000 18.391000 36.582000 34.302000 # H
2527 9 2 0.000000 15.676000 39.836000 29.406000 # H
2528 9 2 0.000000 15.140000 40.828000 34.332000 # H
2529 9 2 0.000000 15.468000 45.704000 32.276000 # H
2530 9 2 0.000000 12.930000 44.258000 29.106000 # H
2531 9 2 0.000000 15.124000 48.007000 31.496000 # H
2532 9 2 0.000000 12.598000 46.557000 28.319000 # H
2533 9 2 0.000000 13.846000 51.005000 25.784000 # H
2534 9 2 0.000000 12.875000 52.732000 30.430000 # H
2535 9 2 0.000000 16.763000 55.994000 24.743000 # H
2536 9 2 0.000000 17.800000 54.944000 20.685000 # H
2537 9 2 0.000000 14.884000 57.364000 23.896000 # H
2538 9 2 0.000000 15.908000 56.313000 19.858000 # H
2539 10 3 0.000000 15.029000 24.736000 10.546000 # N
2540 10 1 0.000000 16.032000 25.257000 9.654000 # C
2541 10 1 0.000000 14.575000 25.318000 11.679000 # C
2542 10 1 0.000000 14.376000 23.550000 10.428000 # C
2543 10 1 0.000000 13.636000 24.511000 12.293000 # C
2544 10 4 0.000000 14.966000 26.440000 12.108000 # O
2545 10 1 0.000000 13.512000 23.374000 11.497000 # C
2546 10 4 0.000000 14.570000 22.722000 9.500000 # O
2547 10 1 0.000000 12.928000 24.666000 13.493000 # C
2548 10 1 0.000000 12.675000 22.303000 11.847000 # C
2549 10 1 0.000000 12.096000 23.592000 13.845000 # C
2550 10 1 0.000000 11.980000 22.453000 13.058000 # C
2551 10 1 0.000000 11.330000 23.372000 14.969000 # C
2552 10 1 0.000000 11.147000 21.589000 13.744000 # C
2553 10 3 0.000000 10.736000 22.151000 14.914000 # N
2554 10 4 0.000000 11.226000 24.175000 15.941000 # O
2555 10 4 0.000000 10.810000 20.439000 13.348000 # O
2556 10 1 0.000000 9.952000 21.530000 15.952000 # C
2557 10 1 0.000000 10.180000 20.190000 16.310000 # C
2558 10 1 0.000000 9.020000 22.280000 16.689000 # C
2559 10 1 0.000000 9.516000 19.625000 17.401000 # C
2560 10 1 0.000000 8.361000 21.715000 17.786000 # C
2561 10 1 0.000000 8.608000 20.387000 18.156000 # C
2562 10 3 0.000000 7.998000 19.829000 19.332000 # N
2563 10 1 0.000000 8.067000 20.342000 20.591000 # C
2564 10 1 0.000000 7.472000 18.587000 19.461000 # C
2565 10 1 0.000000 7.582000 19.432000 21.510000 # C
2566 10 4 0.000000 8.580000 21.457000 20.874000 # O
2567 10 1 0.000000 7.196000 18.314000 20.781000 # C
2568 10 4 0.000000 7.295000 17.788000 18.499000 # O
2569 10 1 0.000000 7.614000 19.434000 22.915000 # C
2570 10 1 0.000000 6.805000 17.118000 21.394000 # C
2571 10 1 0.000000 7.249000 18.222000 23.529000 # C
2572 10 1 0.000000 6.853000 17.114000 22.796000 # C
2573 10 1 0.000000 7.407000 17.787000 24.832000 # C
2574 10 1 0.000000 6.779000 16.058000 23.683000 # C
2575 10 3 0.000000 7.123000 16.461000 24.935000 # N
2576 10 4 0.000000 7.831000 18.500000 25.783000 # O
2577 10 4 0.000000 6.546000 14.862000 23.359000 # O
2578 10 1 0.000000 7.546000 15.568000 25.988000 # C
2579 10 1 0.000000 6.786000 14.433000 26.309000 # C
2580 10 1 0.000000 8.839000 15.695000 26.522000 # C
2581 10 1 0.000000 7.350000 13.392000 27.062000 # C
2582 10 1 0.000000 9.408000 14.651000 27.251000 # C
2583 10 1 0.000000 8.694000 13.458000 27.474000 # C
2584 10 3 0.000000 9.403000 12.267000 27.882000 # N
2585 10 1 0.000000 10.543000 12.219000 28.625000 # C
2586 10 1 0.000000 9.365000 11.083000 27.208000 # C
2587 10 1 0.000000 11.230000 11.045000 28.399000 # C
2588 10 4 0.000000 10.951000 13.156000 29.364000 # O
2589 10 1 0.000000 10.471000 10.314000 27.498000 # C
2590 10 4 0.000000 8.504000 10.788000 26.337000 # O
2591 10 1 0.000000 12.557000 10.702000 28.707000 # C
2592 10 1 0.000000 10.974000 9.178000 26.844000 # C
2593 10 1 0.000000 13.067000 9.578000 28.036000 # C
2594 10 1 0.000000 12.305000 8.845000 27.141000 # C
2595 10 1 0.000000 14.372000 9.160000 27.871000 # C
2596 10 1 0.000000 13.179000 8.017000 26.471000 # C
2597 10 3 0.000000 14.451000 8.206000 26.908000 # N
2598 10 4 0.000000 15.372000 9.671000 28.446000 # O
2599 10 4 0.000000 12.855000 7.240000 25.531000 # O
2600 10 1 0.000000 15.658000 7.842000 26.204000 # C
2601 10 1 0.000000 16.827000 7.517000 26.911000 # C
2602 10 1 0.000000 15.718000 7.973000 24.810000 # C
2603 10 1 0.000000 18.050000 7.401000 26.238000 # C
2604 10 1 0.000000 16.938000 7.864000 24.138000 # C
2605 10 1 0.000000 18.120000 7.605000 24.845000 # C
2606 10 3 0.000000 19.398000 7.705000 24.185000 # N
2607 10 1 0.000000 20.452000 8.446000 24.614000 # C
2608 10 1 0.000000 19.709000 7.298000 22.925000 # C
2609 10 1 0.000000 21.426000 8.511000 23.639000 # C
2610 10 4 0.000000 20.501000 9.044000 25.721000 # O
2611 10 1 0.000000 20.954000 7.778000 22.557000 # C
2612 10 4 0.000000 18.952000 6.609000 22.192000 # O
2613 10 1 0.000000 22.616000 9.251000 23.582000 # C
2614 10 1 0.000000 21.643000 7.729000 21.335000 # C
2615 10 1 0.000000 23.302000 9.206000 22.360000 # C
2616 10 1 0.000000 22.833000 8.475000 21.279000 # C
2617 10 1 0.000000 24.406000 9.903000 21.920000 # C
2618 10 1 0.000000 23.678000 8.759000 20.227000 # C
2619 10 3 0.000000 24.645000 9.638000 20.609000 # N
2620 10 4 0.000000 25.064000 10.726000 22.614000 # O
2621 10 4 0.000000 23.570000 8.277000 19.067000 # O
2622 10 1 0.000000 25.610000 10.296000 19.760000 # C
2623 10 1 0.000000 25.252000 10.688000 18.457000 # C
2624 10 1 0.000000 26.896000 10.622000 20.244000 # C
2625 10 1 0.000000 26.146000 11.405000 17.663000 # C
2626 10 1 0.000000 27.786000 11.358000 19.448000 # C
2627 10 1 0.000000 27.406000 11.760000 18.158000 # C
2628 10 3 0.000000 28.237000 12.638000 17.386000 # N
2629 10 1 0.000000 28.908000 12.290000 16.261000 # C
2630 10 1 0.000000 28.058000 13.978000 17.314000 # C
2631 10 1 0.000000 29.171000 13.401000 15.487000 # C
2632 10 4 0.000000 29.143000 11.100000 15.921000 # O
2633 10 1 0.000000 28.620000 14.482000 16.159000 # C
2634 10 4 0.000000 27.366000 14.642000 18.130000 # O
2635 10 1 0.000000 29.598000 13.491000 14.151000 # C
2636 10 1 0.000000 28.427000 15.725000 15.543000 # C
2637 10 1 0.000000 29.386000 14.731000 13.529000 # C
2638 10 1 0.000000 28.811000 15.803000 14.198000 # C
2639 10 1 0.000000 29.344000 15.053000 12.184000 # C
2640 10 1 0.000000 28.431000 16.710000 13.234000 # C
2641 10 3 0.000000 28.734000 16.257000 11.988000 # N
2642 10 4 0.000000 29.726000 14.293000 11.253000 # O
2643 10 4 0.000000 27.754000 17.752000 13.464000 # O
2644 10 1 0.000000 27.989000 16.641000 10.810000 # C
2645 10 1 0.000000 27.734000 17.996000 10.532000 # C
2646 10 1 0.000000 27.261000 15.663000 10.112000 # C
2647 10 1 0.000000 26.662000 18.359000 9.701000 # C
2648 10 1 0.000000 26.193000 16.022000 9.297000 # C
2649 10 1 0.000000 25.826000 17.373000 9.147000 # C
2650 10 3 0.000000 24.470000 17.693000 8.760000 # N
2651 10 1 0.000000 23.686000 16.921000 7.958000 # C
2652 10 1 0.000000 23.607000 18.308000 9.610000 # C
2653 10 1 0.000000 22.357000 16.992000 8.340000 # C
2654 10 4 0.000000 24.132000 16.145000 7.073000 # O
2655 10 1 0.000000 22.316000 17.884000 9.398000 # C
2656 10 4 0.000000 23.963000 19.038000 10.573000 # O
2657 10 1 0.000000 21.311000 16.084000 8.087000 # C
2658 10 1 0.000000 21.234000 17.931000 10.290000 # C
2659 10 1 0.000000 20.259000 16.093000 9.021000 # C
2660 10 1 0.000000 20.230000 16.980000 10.084000 # C
2661 10 1 0.000000 19.341000 15.105000 9.317000 # C
2662 10 1 0.000000 19.309000 16.486000 10.984000 # C
2663 10 3 0.000000 18.763000 15.329000 10.531000 # N
2664 10 4 0.000000 19.124000 14.085000 8.605000 # O
2665 10 4 0.000000 19.116000 16.957000 12.137000 # O
2666 10 1 0.000000 18.070000 14.363000 11.355000 # C
2667 10 1 0.000000 17.132000 14.783000 12.312000 # C
2668 10 1 0.000000 18.442000 13.005000 11.328000 # C
2669 10 1 0.000000 16.649000 13.891000 13.279000 # C
2670 10 1 0.000000 17.940000 12.111000 12.277000 # C
2671 10 1 0.000000 17.072000 12.552000 13.294000 # C
2672 10 3 0.000000 16.650000 11.648000 14.339000 # N
2673 10 1 0.000000 17.377000 10.639000 14.898000 # C
2674 10 1 0.000000 15.429000 11.586000 14.928000 # C
2675 10 1 0.000000 16.625000 9.941000 15.818000 # C
2676 10 4 0.000000 18.581000 10.388000 14.620000 # O
2677 10 1 0.000000 15.380000 10.554000 15.843000 # C
2678 10 4 0.000000 14.455000 12.329000 14.626000 # O
2679 10 1 0.000000 16.906000 8.779000 16.560000 # C
2680 10 1 0.000000 14.321000 10.058000 16.618000 # C
2681 10 1 0.000000 15.840000 8.275000 17.322000 # C
2682 10 1 0.000000 14.602000 8.897000 17.360000 # C
2683 10 1 0.000000 15.699000 7.083000 18.009000 # C
2684 10 1 0.000000 13.766000 8.061000 18.068000 # C
2685 10 3 0.000000 14.429000 6.946000 18.472000 # N
2686 10 4 0.000000 16.595000 6.207000 18.138000 # O
2687 10 4 0.000000 12.529000 8.248000 18.236000 # O
2688 10 1 0.000000 13.784000 5.718000 18.867000 # C
2689 10 1 0.000000 12.795000 5.720000 19.866000 # C
2690 10 1 0.000000 13.933000 4.578000 18.066000 # C
2691 10 1 0.000000 11.881000 4.664000 19.956000 # C
2692 10 1 0.000000 12.994000 3.551000 18.125000 # C
2693 10 1 0.000000 11.902000 3.619000 19.013000 # C
2694 10 3 0.000000 10.699000 2.863000 18.734000 # N
2695 10 1 0.000000 10.647000 1.706000 18.011000 # C
2696 10 1 0.000000 9.493000 3.461000 18.522000 # C
2697 10 1 0.000000 9.470000 1.617000 17.294000 # C
2698 10 4 0.000000 11.603000 0.890000 17.911000 # O
2699 10 1 0.000000 8.728000 2.739000 17.634000 # C
2700 10 4 0.000000 9.192000 4.610000 18.945000 # O
2701 10 1 0.000000 9.221000 0.893000 16.113000 # C
2702 10 1 0.000000 7.692000 3.219000 16.829000 # C
2703 10 1 0.000000 8.239000 1.430000 15.264000 # C
2704 10 1 0.000000 7.507000 2.557000 15.611000 # C
2705 10 1 0.000000 8.139000 1.318000 13.891000 # C
2706 10 1 0.000000 7.018000 3.086000 14.436000 # C
2707 10 3 0.000000 7.422000 2.351000 13.365000 # N
2708 10 4 0.000000 8.738000 0.450000 13.200000 # O
2709 10 4 0.000000 6.426000 4.198000 14.355000 # O
2710 10 1 0.000000 7.621000 2.930000 12.050000 # C
2711 10 1 0.000000 8.899000 2.897000 11.456000 # C
2712 10 1 0.000000 6.651000 3.789000 11.493000 # C
2713 10 1 0.000000 9.237000 3.797000 10.450000 # C
2714 10 1 0.000000 7.005000 4.714000 10.501000 # C
2715 10 1 0.000000 8.323000 4.772000 10.027000 # C
2716 10 3 0.000000 8.805000 5.929000 9.313000 # N
2717 10 1 0.000000 9.905000 6.650000 9.649000 # C
2718 10 1 0.000000 8.220000 6.591000 8.279000 # C
2719 10 1 0.000000 10.028000 7.746000 8.835000 # C
2720 10 4 0.000000 10.671000 6.377000 10.612000 # O
2721 10 1 0.000000 8.960000 7.717000 7.950000 # C
2722 10 4 0.000000 7.155000 6.224000 7.715000 # O
2723 10 1 0.000000 10.974000 8.775000 8.847000 # C
2724 10 1 0.000000 8.771000 8.720000 6.980000 # C
2725 10 1 0.000000 10.779000 9.782000 7.897000 # C
2726 10 1 0.000000 9.722000 9.762000 6.996000 # C
2727 10 1 0.000000 11.480000 10.944000 7.670000 # C
2728 10 1 0.000000 9.835000 10.927000 6.253000 # C
2729 10 3 0.000000 10.912000 11.654000 6.663000 # N
2730 10 4 0.000000 12.476000 11.328000 8.343000 # O
2731 10 4 0.000000 9.065000 11.270000 5.317000 # O
2732 10 1 0.000000 11.347000 12.944000 6.194000 # C
2733 10 1 0.000000 10.427000 13.986000 5.992000 # C
2734 10 1 0.000000 12.719000 13.204000 6.035000 # C
2735 10 1 0.000000 10.877000 15.274000 5.672000 # C
2736 10 1 0.000000 13.164000 14.490000 5.719000 # C
2737 10 1 0.000000 12.251000 15.540000 5.555000 # C
2738 10 3 0.000000 12.723000 16.878000 5.312000 # N
2739 10 1 0.000000 13.729000 17.516000 5.959000 # C
2740 10 1 0.000000 12.269000 17.748000 4.371000 # C
2741 10 1 0.000000 13.915000 18.780000 5.445000 # C
2742 10 4 0.000000 14.392000 17.022000 6.913000 # O
2743 10 4 0.000000 11.352000 17.489000 3.552000 # O
2744 10 1 0.000000 12.979000 18.932000 4.429000 # C
2745 10 1 0.000000 14.833000 19.790000 5.776000 # C
2746 10 1 0.000000 12.891000 20.102000 3.661000 # C
2747 10 1 0.000000 14.751000 20.960000 5.004000 # C
2748 10 1 0.000000 13.812000 21.112000 3.990000 # C
2749 10 1 0.000000 15.492000 22.128000 5.024000 # C
2750 10 1 0.000000 14.023000 22.364000 3.449000 # C
2751 10 4 0.000000 16.450000 22.377000 5.808000 # O
2752 10 3 0.000000 15.049000 22.986000 4.077000 # N
2753 10 4 0.000000 13.368000 22.873000 2.499000 # O
2754 10 2 0.000000 15.431000 23.935000 3.862000 # H
2755 10 1 0.000000 15.716000 25.530000 8.312000 # C
2756 10 1 0.000000 17.322000 25.539000 10.137000 # C
2757 10 1 0.000000 16.675000 26.103000 7.469000 # C
2758 10 1 0.000000 18.281000 26.101000 9.288000 # C
2759 10 1 0.000000 17.958000 26.393000 7.955000 # C
2760 10 2 0.000000 18.699000 26.839000 7.303000 # H
2761 10 2 0.000000 13.037000 25.539000 14.125000 # H
2762 10 2 0.000000 12.595000 21.408000 11.245000 # H
2763 10 2 0.000000 10.906000 19.592000 15.775000 # H
2764 10 2 0.000000 8.813000 23.308000 16.422000 # H
2765 10 2 0.000000 9.742000 18.602000 17.682000 # H
2766 10 2 0.000000 7.662000 22.313000 18.358000 # H
2767 10 2 0.000000 7.995000 20.269000 23.488000 # H
2768 10 2 0.000000 6.591000 16.228000 20.821000 # H
2769 10 2 0.000000 5.784000 14.320000 25.912000 # H
2770 10 2 0.000000 9.456000 16.545000 26.266000 # H
2771 10 2 0.000000 6.763000 12.504000 27.247000 # H
2772 10 2 0.000000 10.450000 14.736000 27.527000 # H
2773 10 2 0.000000 13.189000 11.348000 29.303000 # H
2774 10 2 0.000000 10.420000 8.670000 26.060000 # H
2775 10 2 0.000000 16.802000 7.409000 27.987000 # H
2776 10 2 0.000000 14.836000 8.257000 24.243000 # H
2777 10 2 0.000000 18.950000 7.193000 26.804000 # H
2778 10 2 0.000000 16.966000 8.067000 23.074000 # H
2779 10 2 0.000000 22.957000 9.862000 24.407000 # H
2780 10 2 0.000000 21.255000 7.198000 20.475000 # H
2781 10 2 0.000000 24.264000 10.483000 18.064000 # H
2782 10 2 0.000000 27.201000 10.314000 21.235000 # H
2783 10 2 0.000000 25.849000 11.724000 16.670000 # H
2784 10 2 0.000000 28.762000 11.626000 19.839000 # H
2785 10 2 0.000000 29.915000 12.620000 13.590000 # H
2786 10 2 0.000000 27.868000 16.519000 16.019000 # H
2787 10 2 0.000000 28.296000 18.768000 11.044000 # H
2788 10 2 0.000000 27.406000 14.611000 10.317000 # H
2789 10 2 0.000000 26.412000 19.405000 9.588000 # H
2790 10 2 0.000000 25.567000 15.229000 8.918000 # H
2791 10 2 0.000000 21.414000 15.290000 7.358000 # H
2792 10 2 0.000000 21.281000 18.517000 11.201000 # H
2793 10 2 0.000000 16.810000 15.818000 12.348000 # H
2794 10 2 0.000000 19.176000 12.645000 10.622000 # H
2795 10 2 0.000000 15.983000 14.265000 14.050000 # H
2796 10 2 0.000000 18.260000 11.076000 12.236000 # H
2797 10 2 0.000000 17.860000 8.269000 16.496000 # H
2798 10 2 0.000000 13.335000 10.503000 16.587000 # H
2799 10 2 0.000000 12.671000 6.581000 20.509000 # H
2800 10 2 0.000000 14.683000 4.548000 17.289000 # H
2801 10 2 0.000000 11.079000 4.722000 20.680000 # H
2802 10 2 0.000000 13.054000 2.783000 17.370000 # H
2803 10 2 0.000000 9.913000 0.137000 15.766000 # H
2804 10 2 0.000000 7.246000 4.185000 17.014000 # H
2805 10 2 0.000000 9.688000 2.275000 11.855000 # H
2806 10 2 0.000000 5.650000 3.819000 11.909000 # H
2807 10 2 0.000000 10.252000 3.804000 10.080000 # H
2808 10 2 0.000000 6.285000 5.459000 10.197000 # H
2809 10 2 0.000000 11.792000 8.806000 9.556000 # H
2810 10 2 0.000000 7.939000 8.711000 6.287000 # H
2811 10 2 0.000000 9.366000 13.815000 6.130000 # H
2812 10 2 0.000000 13.442000 12.410000 6.168000 # H
2813 10 2 0.000000 10.154000 16.070000 5.557000 # H
2814 10 2 0.000000 14.227000 14.665000 5.610000 # H
2815 10 2 0.000000 15.562000 19.672000 6.567000 # H
2816 10 2 0.000000 12.165000 20.224000 2.870000 # H
2817 10 2 0.000000 14.721000 25.323000 7.928000 # H
2818 10 2 0.000000 17.575000 25.322000 11.169000 # H
2819 10 2 0.000000 16.426000 26.330000 6.442000 # H
2820 10 2 0.000000 19.270000 26.321000 9.663000 # H

Bonds

1 3 1 2
2 3 1 3
3 3 1 4
4 1 2 217
5 1 2 218
6 1 3 5
7 4 3 6
8 1 4 7
9 4 4 8
10 1 5 7
11 1 5 9
12 1 7 10
13 1 9 11
14 2 9 223
15 1 10 12
16 2 10 224
17 1 11 12
18 1 11 13
19 1 12 14
20 3 13 15
21 4 13 16
22 3 14 15
23 4 14 17
24 3 15 18
25 1 18 19
26 1 18 20
27 1 19 21
28 2 19 225
29 1 20 22
30 2 20 226
31 1 21 23
32 2 21 227
33 1 22 23
34 2 22 228
35 3 23 24
36 3 24 25
37 3 24 26
38 1 25 27
39 4 25 28
40 1 26 29
41 4 26 30
42 1 27 29
43 1 27 31
44 1 29 32
45 1 31 33
46 2 31 229
47 1 32 34
48 2 32 230
49 1 33 34
50 1 33 35
51 1 34 36
52 3 35 37
53 4 35 38
54 3 36 37
55 4 36 39
56 3 37 40
57 1 40 41
58 1 40 42
59 1 41 43
60 2 41 231
61 1 42 44
62 2 42 232
63 1 43 45
64 2 43 233
65 1 44 45
66 2 44 234
67 3 45 46
68 3 46 47
69 3 46 48
70 1 47 49
71 4 47 50
72 1 48 51
73 4 48 52
74 1 49 51
75 1 49 53
76 1 51 54
77 1 53 55
78 2 53 235
79 1 54 56
80 2 54 236
81 1 55 56
82 1 55 57
83 1 56 58
84 3 57 59
85 4 57 60
86 3 58 59
87 4 58 61
88 3 59 62
89 1 62 63
90 1 62 64
91 1 63 65
92 2 63 237
93 1 64 66
94 2 64 238
95 1 65 67
96 2 65 239
97 1 66 67
98 2 66 240
99 3 67 68
100 3 68 69
101 3 68 70
102 1 69 71
103 4 69 72
104 1 70 73
105 4 70 74
106 1 71 73
107 1 71 75
108 1 73 76
109 1 75 77
110 2 75 241
111 1 76 78
112 2 76 242
113 1 77 78
114 1 77 79
115 1 78 80
116 3 79 81
117 4 79 82
118 3 80 81
119 4 80 83
120 3 81 84
121 1 84 85
122 1 84 86
123 1 85 87
124 2 85 243
125 1 86 88
126 2 86 244
127 1 87 89
128 2 87 245
129 1 88 89
130 2 88 246
131 3 89 90
132 3 90 91
133 3 90 92
134 1 91 93
135 4 91 94
136 1 92 95
137 4 92 96
138 1 93 95
139 1 93 97
140 1 95 98
141 1 97 99
142 2 97 247
143 1 98 100
144 2 98 248
145 1 99 100
146 1 99 101
147 1 100 102
148 3 101 103
149 4 101 104
150 3 102 103
151 4 102 105
152 3 103 106
153 1 106 107
154 1 106 108
155 1 107 109
156 2 107 249
157 1 108 110
158 2 108 250
159 1 109 111
160 2 109 251
161 1 110 111
162 2 110 252
163 3 111 112
164 3 112 113
165 3 112 114
166 1 113 115
167 4 113 116
168 1 114 117
169 4 114 118
170 1 115 117
171 1 115 119
172 1 117 120
173 1 119 121
174 2 119 253
175 1 120 122
176 2 120 254
177 1 121 122
178 1 121 123
179 1 122 124
180 3 123 125
181 4 123 126
182 3 124 125
183 4 124 127
184 3 125 128
185 1 128 129
186 1 128 130
187 1 129 131
188 2 129 255
189 1 130 132
190 2 130 256
191 1 131 133
192 2 131 257
193 1 132 133
194 2 132 258
195 3 133 134
196 3 134 135
197 3 134 136
198 1 135 137
199 4 135 138
200 1 136 139
201 4 136 140
202 1 137 139
203 1 137 141
204 1 139 142
205 1 141 143
206 2 141 259
207 1 142 144
208 2 142 260
209 1 143 144
210 1 143 145
211 1 144 146
212 3 145 147
213 4 145 148
214 3 146 147
215 4 146 149
216 3 147 150
217 1 150 151
218 1 150 152
219 1 151 153
220 2 151 261
221 1 152 154
222 2 152 262
223 1 153 155
224 2 153 263
225 1 154 155
226 2 154 264
227 3 155 156
228 3 156 157
229 3 156 158
230 1 157 159
231 4 157 160
232 1 158 161
233 4 158 162
234 1 159 161
235 1 159 163
236 1 161 164
237 1 163 165
238 2 163 265
239 1 164 166
240 2 164 266
241 1 165 166
242 1 165 167
243 1 166 168
244 3 167 169
245 4 167 170
246 3 168 169
247 4 168 171
248 3 169 172
249 1 172 173
250 1 172 174
251 1 173 175
252 2 173 267
253 1 174 176
254 2 174 268
255 1 175 177
256 2 175 269
257 1 176 177
258 2 176 270
259 3 177 178
260 3 178 179
261 3 178 180
262 1 179 181
263 4 179 182
264 1 180 183
265 4 180 184
266 1 181 183
267 1 181 185
268 1 183 186
269 1 185 187
270 2 185 271
271 1 186 188
272 2 186 272
273 1 187 188
274 1 187 189
275 1 188 190
276 3 189 191
277 4 189 192
278 3 190 191
279 4 190 193
280 3 191 194
281 1 194 195
282 1 194 196
283 1 195 197
284 2 195 273
285 1 196 198
286 2 196 274
287 1 197 199
288 2 197 275
289 1 198 199
290 2 198 276
291 3 199 200
292 3 200 201
293 3 200 202
294 1 201 203
295 4 201 204
296 4 202 205
297 1 202 206
298 1 203 206
299 1 203 207
300 1 206 208
301 1 207 209
302 2 207 277
303 1 208 210
304 2 208 278
305 1 209 210
306 1 209 211
307 1 210 212
308 4 211 213
309 3 211 214
310 3 212 214
311 4 212 215
312 5 214 216
313 1 217 219
314 2 217 279
315 1 218 220
316 2 218 280
317 1 219 221
318 2 219 281
319 1 220 221
320 2 220 282
321 2 221 222
322 3 283 284
323 3 283 285
324 3 283 286
325 1 284 499
326 1 284 500
327 1 285 287
328 4 285 288
329 1 286 289
330 4 286 290
331 1 287 289
332 1 287 291
333 1 289 292
334 1 291 293
335 2 291 505
336 1 292 294
337 2 292 506
338 1 293 294
339 1 293 295
340 1 294 296
341 3 295 297
342 4 295 298
343 3 296 297
344 4 296 299
345 3 297 300
346 1 300 301
347 1 300 302
348 1 301 303
349 2 301 507
350 1 302 304
351 2 302 508
352 1 303 305
353 2 303 509
354 1 304 305
355 2 304 510
356 3 305 306
357 3 306 307
358 3 306 308
359 1 307 309
360 4 307 310
361 1 308 311
362 4 308 312
363 1 309 311
364 1 309 313
365 1 311 314
366 1 313 315
367 2 313 511
368 1 314 316
369 2 314 512
370 1 315 316
371 1 315 317
372 1 316 318
373 3 317 319
374 4 317 320
375 3 318 319
376 4 318 321
377 3 319 322
378 1 322 323
379 1 322 324
380 1 323 325
381 2 323 513
382 1 324 326
383 2 324 514
384 1 325 327
385 2 325 515
386 1 326 327
387 2 326 516
388 3 327 328
389 3 328 329
390 3 328 330
391 1 329 331
392 4 329 332
393 1 330 333
394 4 330 334
395 1 331 333
396 1 331 335
397 1 333 336
398 1 335 337
399 2 335 517
400 1 336 338
401 2 336 518
402 1 337 338
403 1 337 339
404 1 338 340
405 3 339 341
406 4 339 342
407 3 340 341
408 4 340 343
409 3 341 344
410 1 344 345
411 1 344 346
412 1 345 347
413 2 345 519
414 1 346 348
415 2 346 520
416 1 347 349
417 2 347 521
418 1 348 349
419 2 348 522
420 3 349 350
421 3 350 351
422 3 350 352
423 1 351 353
424 4 351 354
425 1 352 355
426 4 352 356
427 1 353 355
428 1 353 357
429 1 355 358
430 1 357 359
431 2 357 523
432 1 358 360
433 2 358 524
434 1 359 360
435 1 359 361
436 1 360 362
437 3 361 363
438 4 361 364
439 3 362 363
440 4 362 365
441 3 363 366
442 1 366 367
443 1 366 368
444 1 367 369
445 2 367 525
446 1 368 370
447 2 368 526
448 1 369 371
449 2 369 527
450 1 370 371
451 2 370 528
452 3 371 372
453 3 372 373
454 3 372 374
455 1 373 375
456 4 373 376
457 1 374 377
458 4 374 378
459 1 375 377
460 1 375 379
461 1 377 380
462 1 379 381
463 2 379 529
464 1 380 382
465 2 380 530
466 1 381 382
467 1 381 383
468 1 382 384
469 3 383 385
470 4 383 386
471 3 384 385
472 4 384 387
473 3 385 388
474 1 388 389
475 1 388 390
476 1 389 391
477 2 389 531
478 1 390 392
479 2 390 532
480 1 391 393
481 2 391 533
482 1 392 393
483 2 392 534
484 3 393 394
485 3 394 395
486 3 394 396
487 1 395 397
488 4 395 398
489 1 396 399
490 4 396 400
491 1 397 399
492 1 397 401
493 1 399 402
494 1 401 403
495 2 401 535
496 1 402 404
497 2 402 536
498 1 403 404
499 1 403 405
500 1 404 406
501 3 405 407
502 4 405 408
503 3 406 407
504 4 406 409
505 3 407 410
506 1 410 411
507 1 410 412
508 1 411 413
509 2 411 537
510 1 412 414
511 2 412 538
512 1 413 415
513 2 413 539
514 1 414 415
515 2 414 540
516 3 415 416
517 3 416 417
518 3 416 418
519 1 417 419
520 4 417 420
521 1 418 421
522 4 418 422
523 1 419 421
524 1 419 423
525 1 421 424
526 1 423 425
527 2 423 541
528 1 424 426
529 2 424 542
530 1 425 426
531 1 425 427
532 1 426 428
533 3 427 429
534 4 427 430
535 3 428 429
536 4 428 431
537 3 429 432
538 1 432 433
539 1 432 434
540 1 433 435
541 2 433 543
542 1 434 436
543 2 434 544
544 1 435 437
545 2 435 545
546 1 436 437
547 2 436 546
548 3 437 438
549 3 438 439
550 3 438 440
551 1 439 441
552 4 439 442
553 1 440 443
554 4 440 444
555 1 441 443
556 1 441 445
557 1 443 446
558 1 445 447
559 2 445 547
560 1 446 448
561 2 446 548
562 1 447 448
563 1 447 449
564 1 448 450
565 3 449 451
566 4 449 452
567 3 450 451
568 4 450 453
569 3 451 454
570 1 454 455
571 1 454 456
572 1 455 457
573 2 455 549
574 1 456 458
575 2 456 550
576 1 457 459
577 2 457 551
578 1 458 459
579 2 458 552
580 3 459 460
581 3 460 461
582 3 460 462
583 1 461 463
584 4 461 464
585 1 462 465
586 4 462 466
587 1 463 465
588 1 463 467
589 1 465 468
590 1 467 469
591 2 467 553
592 1 468 470
593 2 468 554
594 1 469 470
595 1 469 471
596 1 470 472
597 3 471 473
598 4 471 474
599 3 472 473
600 4 472 475
601 3 473 476
602 1 476 477
603 1 476 478
604 1 477 479
605 2 477 555
606 1 478 480
607 2 478 556
608 1 479 481
609 2 479 557
610 1 480 481
611 2 480 558
612 3 481 482
613 3 482 483
614 3 482 484
615 1 483 485
616 4 483 486
617 4 484 487
618 1 484 488
619 1 485 488
620 1 485 489
621 1 488 490
622 1 489 491
623 2 489 559
624 1 490 492
625 2 490 560
626 1 491 492
627 1 491 493
628 1 492 494
629 4 493 495
630 3 493 496
631 3 494 496
632 4 494 497
633 5 496 498
634 1 499 501
635 2 499 561
636 1 500 502
637 2 500 562
638 1 501 503
639 2 501 563
640 1 502 503
641 2 502 564
642 2 503 504
643 3 565 566
644 3 565 567
645 3 565 568
646 1 566 781
647 1 566 782
648 1 567 569
649 4 567 570
650 1 568 571
651 4 568 572
652 1 569 571
653 1 569 573
654 1 571 574
655 1 573 575
656 2 573 787
657 1 574 576
658 2 574 788
659 1 575 576
660 1 575 577
661 1 576 578
662 3 577 579
663 4 577 580
664 3 578 579
665 4 578 581
666 3 579 582
667 1 582 583
668 1 582 584
669 1 583 585
670 2 583 789
671 1 584 586
672 2 584 790
673 1 585 587
674 2 585 791
675 1 586 587
676 2 586 792
677 3 587 588
678 3 588 589
679 3 588 590
680 1 589 591
681 4 589 592
682 1 590 593
683 4 590 594
684 1 591 593
685 1 591 595
686 1 593 596
687 1 595 597
688 2 595 793
689 1 596 598
690 2 596 794
691 1 597 598
692 1 597 599
693 1 598 600
694 3 599 601
695 4 599 602
696 3 600 601
697 4 600 603
698 3 601 604
699 1 604 605
700 1 604 606
701 1 605 607
702 2 605 795
703 1 606 608
704 2 606 796
705 1 607 609
706 2 607 797
707 1 608 609
708 2 608 798
709 3 609 610
710 3 610 611
711 3 610 612
712 1 611 613
713 4 611 614
714 1 612 615
715 4 612 616
716 1 613 615
717 1 613 617
718 1 615 618
719 1 617 619
720 2 617 799
721 1 618 620
722 2 618 800
723 1 619 620
724 1 619 621
725 1 620 622
726 3 621 623
727 4 621 624
728 3 622 623
729 4 622 625
730 3 623 626
731 1 626 627
732 1 626 628
733 1 627 629
734 2 627 801
735 1 628 630
736 2 628 802
737 1 629 631
738 2 629 803
739 1 630 631
740 2 630 804
741 3 631 632
742 3 632 633
743 3 632 634
744 1 633 635
745 4 633 636
746 1 634 637
747 4 634 638
748 1 635 637
749 1 635 639
750 1 637 640
751 1 639 641
752 2 639 805
753 1 640 642
754 2 640 806
755 1 641 642
756 1 641 643
757 1 642 644
758 3 643 645
759 4 643 646
760 3 644 645
761 4 644 647
762 3 645 648
763 1 648 649
764 1 648 650
765 1 649 651
766 2 649 807
767 1 650 652
768 2 650 808
769 1 651 653
770 2 651 809
771 1 652 653
772 2 652 810
773 3 653 654
774 3 654 655
775 3 654 656
776 1 655 657
777 4 655 658
778 1 656 659
779 4 656 660
780 1 657 659
781 1 657 661
782 1 659 662
783 1 661 663
784 2 661 811
785 1 662 664
786 2 662 812
787 1 663 664
788 1 663 665
789 1 664 666
790 3 665 667
791 4 665 668
792 3 666 667
793 4 666 669
794 3 667 670
795 1 670 671
796 1 670 672
797 1 671 673
798 2 671 813
799 1 672 674
800 2 672 814
801 1 673 675
802 2 673 815
803 1 674 675
804 2 674 816
805 3 675 676
806 3 676 677
807 3 676 678
808 1 677 679
809 4 677 680
810 1 678 681
811 4 678 682
812 1 679 681
813 1 679 683
814 1 681 684
815 1 683 685
816 2 683 817
817 1 684 686
818 2 684 818
819 1 685 686
820 1 685 687
821 1 686 688
822 3 687 689
823 4 687 690
824 3 688 689
825 4 688 691
826 3 689 692
827 1 692 693
828 1 692 694
829 1 693 695
830 2 693 819
831 1 694 696
832 2 694 820
833 1 695 697
834 2 695 821
835 1 696 697
836 2 696 822
837 3 697 698
838 3 698 699
839 3 698 700
840 1 699 701
841 4 699 702
842 1 700 703
843 4 700 704
844 1 701 703
845 1 701 705
846 1 703 706
847 1 705 707
848 2 705 823
849 1 706 708
850 2 706 824
851 1 707 708
852 1 707 709
853 1 708 710
854 3 709 711
855 4 709 712
856 3 710 711
857 4 710 713
858 3 711 714
859 1 714 715
860 1 714 716
861 1 715 717
862 2 715 825
863 1 716 718
864 2 716 826
865 1 717 719
866 2 717 827
867 1 718 719
868 2 718 828
869 3 719 720
870 3 720 721
871 3 720 722
872 1 721 723
873 4 721 724
874 1 722 725
875 4 722 726
876 1 723 725
877 1 723 727
878 1 725 728
879 1 727 729
880 2 727 829
881 1 728 730
882 2 728 830
883 1 729 730
884 1 729 731
885 1 730 732
886 3 731 733
887 4 731 734
888 3 732 733
889 4 732 735
890 3 733 736
891 1 736 737
892 1 736 738
893 1 737 739
894 2 737 831
895 1 738 740
896 2 738 832
897 1 739 741
898 2 739 833
899 1 740 741
900 2 740 834
901 3 741 742
902 3 742 743
903 3 742 744
904 1 743 745
905 4 743 746
906 1 744 747
907 4 744 748
908 1 745 747
909 1 745 749
910 1 747 750
911 1 749 751
912 2 749 835
913 1 750 752
914 2 750 836
915 1 751 752
916 1 751 753
917 1 752 754
918 3 753 755
919 4 753 756
920 3 754 755
921 4 754 757
922 3 755 758
923 1 758 759
924 1 758 760
925 1 759 761
926 2 759 837
927 1 760 762
928 2 760 838
929 1 761 763
930 2 761 839
931 1 762 763
932 2 762 840
933 3 763 764
934 3 764 765
935 3 764 766
936 1 765 767
937 4 765 768
938 4 766 769
939 1 766 770
940 1 767 770
941 1 767 771
942 1 770 772
943 1 771 773
944 2 771 841
945 1 772 774
946 2 772 842
947 1 773 774
948 1 773 775
949 1 774 776
950 4 775 777
951 3 775 778
952 3 776 778
953 4 776 779
954 5 778 780
955 1 781 783
956 2 781 843
957 1 782 784
958 2 782 844
959 1 783 785
960 2 783 845
961 1 784 785
962 2 784 846
963 2 785 786
964 3 847 848
965 3 847 849
966 3 847 850
967 1 848 1063
968 1 848 1064
969 1 849 851
970 4 849 852
971 1 850 853
972 4 850 854
973 1 851 853
974 1 851 855
975 1 853 856
976 1 855 857
977 2 855 1069
978 1 856 858
979 2 856 1070
980 1 857 858
981 1 857 859
982 1 858 860
983 3 859 861
984 4 859 862
985 3 860 861
986 4 860 863
987 3 861 864
988 1 864 865
989 1 864 866
990 1 865 867
991 2 865 1071
992 1 866 868
993 2 866 1072
994 1 867 869
995 2 867 1073
996 1 868 869
997 2 868 1074
998 3 869 870
999 3 870 871
1000 3 870 872
1001 1 871 873
1002 4 871 874
1003 1 872 875
1004 4 872 876
1005 1 873 875
1006 1 873 877
1007 1 875 878
1008 1 877 879
1009 2 877 1075
1010 1 878 880
1011 2 878 1076
1012 1 879 880
1013 1 879 881
1014 1 880 882
1015 3 881 883
1016 4 881 884
1017 3 882 883
1018 4 882 885
1019 3 883 886
1020 1 886 887
1021 1 886 888
1022 1 887 889
1023 2 887 1077
1024 1 888 890
1025 2 888 1078
1026 1 889 891
1027 2 889 1079
1028 1 890 891
1029 2 890 1080
1030 3 891 892
1031 3 892 893
1032 3 892 894
1033 1 893 895
1034 4 893 896
1035 1 894 897
1036 4 894 898
1037 1 895 897
1038 1 895 899
1039 1 897 900
1040 1 899 901
1041 2 899 1081
1042 1 900 902
1043 2 900 1082
1044 1 901 902
1045 1 901 903
1046 1 902 904
1047 3 903 905
1048 4 903 906
1049 3 904 905
1050 4 904 907
1051 3 905 908
1052 1 908 909
1053 1 908 910
1054 1 909 911
1055 2 909 1083
1056 1 910 912
1057 2 910 1084
1058 1 911 913
1059 2 911 1085
1060 1 912 913
1061 2 912 1086
1062 3 913 914
1063 3 914 915
1064 3 914 916
1065 1 915 917
1066 4 915 918
1067 1 916 919
1068 4 916 920
1069 1 917 919
1070 1 917 921
1071 1 919 922
1072 1 921 923
1073 2 921 1087
1074 1 922 924
1075 2 922 1088
1076 1 923 924
1077 1 923 925
1078 1 924 926
1079 3 925 927
1080 4 925 928
1081 3 926 927
1082 4 926 929
1083 3 927 930
1084 1 930 931
1085 1 930 932
1086 1 931 933
1087 2 931 1089
1088 1 932 934
1089 2 932 1090
1090 1 933 935
1091 2 933 1091
1092 1 934 935
1093 2 934 1092
1094 3 935 936
1095 3 936 937
1096 3 936 938
1097 1 937 939
1098 4 937 940
1099 1 938 941
1100 4 938 942
1101 1 939 941
1102 1 939 943
1103 1 941 944
1104 1 943 945
1105 2 943 1093
1106 1 944 946
1107 2 944 1094
1108 1 945 946
1109 1 945 947
1110 1 946 948
1111 3 947 949
1112 4 947 950
1113 3 948 949
1114 4 948 951
1115 3 949 952
1116 1 952 953
1117 1 952 954
1118 1 953 955
1119 2 953 1095
1120 1 954 956
1121 2 954 1096
1122 1 955 957
1123 2 955 1097
1124 1 956 957
1125 2 956 1098
1126 3 957 958
1127 3 958 959
1128 3 958 960
1129 1 959 961
1130 4 959 962
1131 1 960 963
1132 4 960 964
1133 1 961 963
1134 1 961 965
1135 1 963 966
1136 1 965 967
1137 2 965 1099
1138 1 966 968
1139 2 966 1100
1140 1 967 968
1141 1 967 969
1142 1 968 970
1143 3 969 971
1144 4 969 972
1145 3 970 971
1146 4 970 973
1147 3 971 974
1148 1 974 975
1149 1 974 976
1150 1 975 977
1151 2 975 1101
1152 1 976 978
1153 2 976 1102
1154 1 977 979
1155 2 977 1103
1156 1 978 979
1157 2 978 1104
1158 3 979 980
1159 3 980 981
1160 3 980 982
1161 1 981 983
1162 4 981 984
1163 1 982 985
1164 4 982 986
1165 1 983 985
1166 1 983 987
1167 1 985 988
1168 1 987 989
1169 2 987 1105
1170 1 988 990
1171 2 988 1106
1172 1 989 990
1173 1 989 991
1174 1 990 992
1175 3 991 993
1176 4 991 994
1177 3 992 993
1178 4 992 995
1179 3 993 996
1180 1 996 997
1181 1 996 998
1182 1 997 999
1183 2 997 1107
1184 1 998 1000
1185 2 998 1108
1186 1 999 1001
1187 2 999 1109
1188 1 1000 1001
1189 2 1000 1110
1190 3 1001 1002
1191 3 1002 1003
1192 3 1002 1004
1193 1 1003 1005
1194 4 1003 1006
1195 1 1004 1007
1196 4 1004 1008
1197 1 1005 1007
1198 1 1005 1009
1199 1 1007 1010
1200 1 1009 1011
1201 2 1009 1111
1202 1 1010 1012
1203 2 1010 1112
1204 1 1011 1012
1205 1 1011 1013
1206 1 1012 1014
1207 3 1013 1015
1208 4 1013 1016
1209 3 1014 1015
1210 4 1014 1017
1211 3 1015 1018
1212 1 1018 1019
1213 1 1018 1020
1214 1 1019 1021
1215 2 1019 1113
1216 1 1020 1022
1217 2 1020 1114
1218 1 1021 1023
1219 2 1021 1115
1220 1 1022 1023
1221 2 1022 1116
1222 3 1023 1024
1223 3 1024 1025
1224 3 1024 1026
1225 1 1025 1027
1226 4 1025 1028
1227 1 1026 1029
1228 4 1026 1030
1229 1 1027 1029
1230 1 1027 1031
1231 1 1029 1032
1232 1 1031 1033
1233 2 1031 1117
1234 1 1032 1034
1235 2 1032 1118
1236 1 1033 1034
1237 1 1033 1035
1238 1 1034 1036
1239 3 1035 1037
1240 4 1035 1038
1241 3 1036 1037
1242 4 1036 1039
1243 3 1037 1040
1244 1 1040 1041
1245 1 1040 1042
1246 1 1041 1043
1247 2 1041 1119
1248 1 1042 1044
1249 2 1042 1120
1250 1 1043 1045
1251 2 1043 1121
1252 1 1044 1045
1253 2 1044 1122
1254 3 1045 1046
1255 3 1046 1047
1256 3 1046 1048
1257 1 1047 1049
1258 4 1047 1050
1259 4 1048 1051
1260 1 1048 1052
1261 1 1049 1052
1262 1 1049 1053
1263 1 1052 1054
1264 1 1053 1055
1265 2 1053 1123
1266 1 1054 1056
1267 2 1054 1124
1268 1 1055 1056
1269 1 1055 1057
1270 1 1056 1058
1271 4 1057 1059
1272 3 1057 1060
1273 3 1058 1060
1274 4 1058 1061
1275 5 1060 1062
1276 1 1063 1065
1277 2 1063 1125
1278 1 1064 1066
1279 2 1064 1126
1280 1 1065 1067
1281 2 1065 1127
1282 1 1066 1067
1283 2 1066 1128
1284 2 1067 1068
1285 3 1129 1130
1286 3 1129 1131
1287 3 1129 1132
1288 1 1130 1345
1289 1 1130 1346
1290 1 1131 1133
1291 4 1131 1134
1292 1 1132 1135
1293 4 1132 1136
1294 1 1133 1135
1295 1 1133 1137
1296 1 1135 1138
1297 1 1137 1139
1298 2 1137 1351
1299 1 1138 1140
1300 2 1138 1352
1301 1 1139 1140
1302 1 1139 1141
1303 1 1140 1142
1304 3 1141 1143
1305 4 1141 1144
1306 3 1142 1143
1307 4 1142 1145
1308 3 1143 1146
1309 1 1146 1147
1310 1 1146 1148
1311 1 1147 1149
1312 2 1147 1353
1313 1 1148 1150
1314 2 1148 1354
1315 1 1149 1151
1316 2 1149 1355
1317 1 1150 1151
1318 2 1150 1356
1319 3 1151 1152
1320 3 1152 1153
1321 3 1152 1154
1322 1 1153 1155
1323 4 1153 1156
1324 1 1154 1157
1325 4 1154 1158
1326 1 1155 1157
1327 1 1155 1159
1328 1 1157 1160
1329 1 1159 1161
1330 2 1159 1357
1331 1 1160 1162
1332 2 1160 1358
1333 1 1161 1162
1334 1 1161 1163
1335 1 1162 1164
1336 3 1163 1165
1337 4 1163 1166
1338 3 1164 1165
1339 4 1164 1167
1340 3 1165 1168
1341 1 1168 1169
1342 1 1168 1170
1343 1 1169 1171
1344 2 1169 1359
1345 1 1170 1172
1346 2 1170 1360
1347 1 1171 1173
1348 2 1171 1361
1349 1 1172 1173
1350 2 1172 1362
1351 3 1173 1174
1352 3 1174 1175
1353 3 1174 1176
1354 1 1175 1177
1355 4 1175 1178
1356 1 1176 1179
1357 4 1176 1180
1358 1 1177 1179
1359 1 1177 1181
1360 1 1179 1182
1361 1 1181 1183
1362 2 1181 1363
1363 1 1182 1184
1364 2 1182 1364
1365 1 1183 1184
1366 1 1183 1185
1367 1 1184 1186
1368 3 1185 1187
1369 4 1185 1188
1370 3 1186 1187
1371 4 1186 1189
1372 3 1187 1190
1373 1 1190 1191
1374 1 1190 1192
1375 1 1191 1193
1376 2 1191 1365
1377 1 1192 1194
1378 2 1192 1366
1379 1 1193 1195
1380 2 1193 1367
1381 1 1194 1195
1382 2 1194 1368
1383 3 1195 1196
1384 3 1196 1197
1385 3 1196 1198
1386 1 1197 1199
1387 4 1197 1200
1388 1 1198 1201
1389 4 1198 1202
1390 1 1199 1201
1391 1 1199 1203
1392 1 1201 1204
1393 1 1203 1205
1394 2 1203 1369
1395 1 1204 1206
1396 2 1204 1370
1397 1 1205 1206
1398 1 1205 1207
1399 1 1206 1208
1400 3 1207 1209
1401 4 1207 1210
1402 3 1208 1209
1403 4 1208 1211
1404 3 1209 1212
1405 1 1212 1213
1406 1 1212 1214
1407 1 1213 1215
1408 2 1213 1371
1409 1 1214 1216
1410 2 1214 1372
1411 1 1215 1217
1412 2 1215 1373
1413 1 1216 1217
1414 2 1216 1374
1415 3 1217 1218
1416 3 1218 1219
1417 3 1218 1220
1418 1 1219 1221
1419 4 1219 1222
1420 1 1220 1223
1421 4 1220 1224
1422 1 1221 1223
1423 1 1221 1225
1424 1 1223 1226
1425 1 1225 1227
1426 2 1225 1375
1427 1 1226 1228
1428 2 1226 1376
1429 1 1227 1228
1430 1 1227 1229
1431 1 1228 1230
1432 3 1229 1231
1433 4 1229 1232
1434 3 1230 1231
1435 4 1230 1233
1436 3 1231 1234
1437 1 1234 1235
1438 1 1234 1236
1439 1 1235 1237
1440 2 1235 1377
1441 1 1236 1238
1442 2 1236 1378
1443 1 1237 1239
1444 2 1237 1379
1445 1 1238 1239
1446 2 1238 1380
1447 3 1239 1240
1448 3 1240 1241
1449 3 1240 1242
1450 1 1241 1243
1451 4 1241 1244
1452 1 1242 1245
1453 4 1242 1246
1454 1 1243 1245
1455 1 1243 1247
1456 1 1245 1248
1457 1 1247 1249
1458 2 1247 1381
1459 1 1248 1250
1460 2 1248 1382
1461 1 1249 1250
1462 1 1249 1251
1463 1 1250 1252
1464 3 1251 1253
1465 4 1251 1254
1466 3 1252 1253
1467 4 1252 1255
1468 3 1253 1256
1469 1 1256 1257
1470 1 1256 1258
1471 1 1257 1259
1472 2 1257 1383
1473 1 1258 1260
1474 2 1258 1384
1475 1 1259 1261
1476 2 1259 1385
1477 1 1260 1261
1478 2 1260 1386
1479 3 1261 1262
1480 3 1262 1263
1481 3 1262 1264
1482 1 1263 1265
1483 4 1263 1266
1484 1 1264 1267
1485 4 1264 1268
1486 1 1265 1267
1487 1 1265 1269
1488 1 1267 1270
1489 1 1269 1271
1490 2 1269 1387
1491 1 1270 1272
1492 2 1270 1388
1493 1 1271 1272
1494 1 1271 1273
1495 1 1272 1274
1496 3 1273 1275
1497 4 1273 1276
1498 3 1274 1275
1499 4 1274 1277
1500 3 1275 1278
1501 1 1278 1279
1502 1 1278 1280
1503 1 1279 1281
1504 2 1279 1389
1505 1 1280 1282
1506 2 1280 1390
1507 1 1281 1283
1508 2 1281 1391
1509 1 1282 1283
1510 2 1282 1392
1511 3 1283 1284
1512 3 1284 1285
1513 3 1284 1286
1514 1 1285 1287
1515 4 1285 1288
1516 1 1286 1289
1517 4 1286 1290
1518 1 1287 1289
1519 1 1287 1291
1520 1 1289 1292
1521 1 1291 1293
1522 2 1291 1393
1523 1 1292 1294
1524 2 1292 1394
1525 1 1293 1294
1526 1 1293 1295
1527 1 1294 1296
1528 3 1295 1297
1529 4 1295 1298
1530 3 1296 1297
1531 4 1296 1299
1532 3 1297 1300
1533 1 1300 1301
1534 1 1300 1302
1535 1 1301 1303
1536 2 1301 1395
1537 1 1302 1304
1538 2 1302 1396
1539 1 1303 1305
1540 2 1303 1397
1541 1 1304 1305
1542 2 1304 1398
1543 3 1305 1306
1544 3 1306 1307
1545 3 1306 1308
1546 1 1307 1309
1547 4 1307 1310
1548 1 1308 1311
1549 4 1308 1312
1550 1 1309 1311
1551 1 1309 1313
1552 1 1311 1314
1553 1 1313 1315
1554 2 1313 1399
1555 1 1314 1316
1556 2 1314 1400
1557 1 1315 1316
1558 1 1315 1317
1559 1 1316 1318
1560 3 1317 1319
1561 4 1317 1320
1562 3 1318 1319
1563 4 1318 1321
1564 3 1319 1322
1565 1 1322 1323
1566 1 1322 1324
1567 1 1323 1325
1568 2 1323 1401
1569 1 1324 1326
1570 2 1324 1402
1571 1 1325 1327
1572 2 1325 1403
1573 1 1326 1327
1574 2 1326 1404
1575 3 1327 1328
1576 3 1328 1329
1577 3 1328 1330
1578 1 1329 1331
1579 4 1329 1332
1580 4 1330 1333
1581 1 1330 1334
1582 1 1331 1334
1583 1 1331 1335
1584 1 1334 1336
1585 1 1335 1337
1586 2 1335 1405
1587 1 1336 1338
1588 2 1336 1406
1589 1 1337 1338
1590 1 1337 1339
1591 1 1338 1340
1592 4 1339 1341
1593 3 1339 1342
1594 3 1340 1342
1595 4 1340 1343
1596 5 1342 1344
1597 1 1345 1347
1598 2 1345 1407
1599 1 1346 1348
1600 2 1346 1408
1601 1 1347 1349
1602 2 1347 1409
1603 1 1348 1349
1604 2 1348 1410
1605 2 1349 1350
1606 3 1411 1412
1607 3 1411 1413
1608 3 1411 1414
1609 1 1412 1627
1610 1 1412 1628
1611 1 1413 1415
1612 4 1413 1416
1613 1 1414 1417
1614 4 1414 1418
1615 1 1415 1417
1616 1 1415 1419
1617 1 1417 1420
1618 1 1419 1421
1619 2 1419 1633
1620 1 1420 1422
1621 2 1420 1634
1622 1 1421 1422
1623 1 1421 1423
1624 1 1422 1424
1625 3 1423 1425
1626 4 1423 1426
1627 3 1424 1425
1628 4 1424 1427
1629 3 1425 1428
1630 1 1428 1429
1631 1 1428 1430
1632 1 1429 1431
1633 2 1429 1635
1634 1 1430 1432
1635 2 1430 1636
1636 1 1431 1433
1637 2 1431 1637
1638 1 1432 1433
1639 2 1432 1638
1640 3 1433 1434
1641 3 1434 1435
1642 3 1434 1436
1643 1 1435 1437
1644 4 1435 1438
1645 1 1436 1439
1646 4 1436 1440
1647 1 1437 1439
1648 1 1437 1441
1649 1 1439 1442
1650 1 1441 1443
1651 2 1441 1639
1652 1 1442 1444
1653 2 1442 1640
1654 1 1443 1444
1655 1 1443 1445
1656 1 1444 1446
1657 3 1445 1447
1658 4 1445 1448
1659 3 1446 1447
1660 4 1446 1449
1661 3 1447 1450
1662 1 1450 1451
1663 1 1450 1452
1664 1 1451 1453
1665 2 1451 1641
1666 1 1452 1454
1667 2 1452 1642
1668 1 1453 1455
1669 2 1453 1643
1670 1 1454 1455
1671 2 1454 1644
1672 3 1455 1456
1673 3 1456 1457
1674 3 1456 1458
1675 1 1457 1459
1676 4 1457 1460
1677 1 1458 1461
1678 4 1458 1462
1679 1 1459 1461
1680 1 1459 1463
1681 1 1461 1464
1682 1 1463 1465
1683 2 1463 1645
1684 1 1464 1466
1685 2 1464 1646
1686 1 1465 1466
1687 1 1465 1467
1688 1 1466 1468
1689 3 1467 1469
1690 4 1467 1470
1691 3 1468 1469
1692 4 1468 1471
1693 3 1469 1472
1694 1 1472 1473
1695 1 1472 1474
1696 1 1473 1475
1697 2 1473 1647
1698 1 1474 1476
1699 2 1474 1648
1700 1 1475 1477
1701 2 1475 1649
1702 1 1476 1477
1703 2 1476 1650
1704 3 1477 1478
1705 3 1478 1479
1706 3 1478 1480
1707 1 1479 1481
1708 4 1479 1482
1709 1 1480 1483
1710 4 1480 1484
1711 1 1481 1483
1712 1 1481 1485
1713 1 1483 1486
1714 1 1485 1487
1715 2 1485 1651
1716 1 1486 1488
1717 2 1486 1652
1718 1 1487 1488
1719 1 1487 1489
1720 1 1488 1490
1721 3 1489 1491
1722 4 1489 1492
1723 3 1490 1491
1724 4 1490 1493
1725 3 1491 1494
1726 1 1494 1495
1727 1 1494 1496
1728 1 1495 1497
1729 2 1495 1653
1730 1 1496 1498
1731 2 1496 1654
1732 1 1497 1499
1733 2 1497 1655
1734 1 1498 1499
1735 2 1498 1656
1736 3 1499 1500
1737 3 1500 1501
1738 3 1500 1502
1739 1 1501 1503
1740 4 1501 1504
1741 1 1502 1505
1742 4 1502 1506
1743 1 1503 1505
1744 1 1503 1507
1745 1 1505 1508
1746 1 1507 1509
1747 2 1507 1657
1748 1 1508 1510
1749 2 1508 1658
1750 1 1509 1510
1751 1 1509 1511
1752 1 1510 1512
1753 3 1511 1513
1754 4 1511 1514
1755 3 1512 1513
1756 4 1512 1515
1757 3 1513 1516
1758 1 1516 1517
1759 1 1516 1518
1760 1 1517 1519
1761 2 1517 1659
1762 1 1518 1520
1763 2 1518 1660
1764 1 1519 1521
1765 2 1519 1661
1766 1 1520 1521
1767 2 1520 1662
1768 3 1521 1522
1769 3 1522 1523
1770 3 1522 1524
1771 1 1523 1525
1772 4 1523 1526
1773 1 1524 1527
1774 4 1524 1528
1775 1 1525 1527
1776 1 1525 1529
1777 1 1527 1530
1778 1 1529 1531
1779 2 1529 1663
1780 1 1530 1532
1781 2 1530 1664
1782 1 1531 1532
1783 1 1531 1533
1784 1 1532 1534
1785 3 1533 1535
1786 4 1533 1536
1787 3 1534 1535
1788 4 1534 1537
1789 3 1535 1538
1790 1 1538 1539
1791 1 1538 1540
1792 1 1539 1541
1793 2 1539 1665
1794 1 1540 1542
1795 2 1540 1666
1796 1 1541 1543
1797 2 1541 1667
1798 1 1542 1543
1799 2 1542 1668
1800 3 1543 1544
1801 3 1544 1545
1802 3 1544 1546
1803 1 1545 1547
1804 4 1545 1548
1805 1 1546 1549
1806 4 1546 1550
1807 1 1547 1549
1808 1 1547 1551
1809 1 1549 1552
1810 1 1551 1553
1811 2 1551 1669
1812 1 1552 1554
1813 2 1552 1670
1814 1 1553 1554
1815 1 1553 1555
1816 1 1554 1556
1817 3 1555 1557
1818 4 1555 1558
1819 3 1556 1557
1820 4 1556 1559
1821 3 1557 1560
1822 1 1560 1561
1823 1 1560 1562
1824 1 1561 1563
1825 2 1561 1671
1826 1 1562 1564
1827 2 1562 1672
1828 1 1563 1565
1829 2 1563 1673
1830 1 1564 1565
1831 2 1564 1674
1832 3 1565 1566
1833 3 1566 1567
1834 3 1566 1568
1835 1 1567 1569
1836 4 1567 1570
1837 1 1568 1571
1838 4 1568 1572
1839 1 1569 1571
1840 1 1569 1573
1841 1 1571 1574
1842 1 1573 1575
1843 2 1573 1675
1844 1 1574 1576
1845 2 1574 1676
1846 1 1575 1576
1847 1 1575 1577
1848 1 1576 1578
1849 3 1577 1579
1850 4 1577 1580
1851 3 1578 1579
1852 4 1578 1581
1853 3 1579 1582
1854 1 1582 1583
1855 1 1582 1584
1856 1 1583 1585
1857 2 1583 1677
1858 1 1584 1586
1859 2 1584 1678
1860 1 1585 1587
1861 2 1585 1679
1862 1 1586 1587
1863 2 1586 1680
1864 3 1587 1588
1865 3 1588 1589
1866 3 1588 1590
1867 1 1589 1591
1868 4 1589 1592
1869 1 1590 1593
1870 4 1590 1594
1871 1 1591 1593
1872 1 1591 1595
1873 1 1593 1596
1874 1 1595 1597
1875 2 1595 1681
1876 1 1596 1598
1877 2 1596 1682
1878 1 1597 1598
1879 1 1597 1599
1880 1 1598 1600
1881 3 1599 1601
1882 4 1599 1602
1883 3 1600 1601
1884 4 1600 1603
1885 3 1601 1604
1886 1 1604 1605
1887 1 1604 1606
1888 1 1605 1607
1889 2 1605 1683
1890 1 1606 1608
1891 2 1606 1684
1892 1 1607 1609
1893 2 1607 1685
1894 1 1608 1609
1895 2 1608 1686
1896 3 1609 1610
1897 3 1610 1611
1898 3 1610 1612
1899 1 1611 1613
1900 4 1611 1614
1901 4 1612 1615
1902 1 1612 1616
1903 1 1613 1616
1904 1 1613 1617
1905 1 1616 1618
1906 1 1617 1619
1907 2 1617 1687
1908 1 1618 1620
1909 2 1618 1688
1910 1 1619 1620
1911 1 1619 1621
1912 1 1620 1622
1913 4 1621 1623
1914 3 1621 1624
1915 3 1622 1624
1916 4 1622 1625
1917 5 1624 1626
1918 1 1627 1629
1919 2 1627 1689
1920 1 1628 1630
1921 2 1628 1690
1922 1 1629 1631
1923 2 1629 1691
1924 1 1630 1631
1925 2 1630 1692
1926 2 1631 1632
1927 3 1693 1694
1928 3 1693 1695
1929 3 1693 1696
1930 1 1694 1909
1931 1 1694 1910
1932 1 1695 1697
1933 4 1695 1698
1934 1 1696 1699
1935 4 1696 1700
1936 1 1697 1699
1937 1 1697 1701
1938 1 1699 1702
1939 1 1701 1703
1940 2 1701 1915
1941 1 1702 1704
1942 2 1702 1916
1943 1 1703 1704
1944 1 1703 1705
1945 1 1704 1706
1946 3 1705 1707
1947 4 1705 1708
1948 3 1706 1707
1949 4 1706 1709
1950 3 1707 1710
1951 1 1710 1711
1952 1 1710 1712
1953 1 1711 1713
1954 2 1711 1917
1955 1 1712 1714
1956 2 1712 1918
1957 1 1713 1715
1958 2 1713 1919
1959 1 1714 1715
1960 2 1714 1920
1961 3 1715 1716
1962 3 1716 1717
1963 3 1716 1718
1964 1 1717 1719
1965 4 1717 1720
1966 1 1718 1721
1967 4 1718 1722
1968 1 1719 1721
1969 1 1719 1723
1970 1 1721 1724
1971 1 1723 1725
1972 2 1723 1921
1973 1 1724 1726
1974 2 1724 1922
1975 1 1725 1726
1976 1 1725 1727
1977 1 1726 1728
1978 3 1727 1729
1979 4 1727 1730
1980 3 1728 1729
1981 4 1728 1731
1982 3 1729 1732
1983 1 1732 1733
1984 1 1732 1734
1985 1 1733 1735
1986 2 1733 1923
1987 1 1734 1736
1988 2 1734 1924
1989 1 1735 1737
1990 2 1735 1925
1991 1 1736 1737
1992 2 1736 1926
1993 3 1737 1738
1994 3 1738 1739
1995 3 1738 1740
1996 1 1739 1741
1997 4 1739 1742
1998 1 1740 1743
1999 4 1740 1744
2000 1 1741 1743
2001 1 1741 1745
2002 1 1743 1746
2003 1 1745 1747
2004 2 1745 1927
2005 1 1746 1748
2006 2 1746 1928
2007 1 1747 1748
2008 1 1747 1749
2009 1 1748 1750
2010 3 1749 1751
2011 4 1749 1752
2012 3 1750 1751
2013 4 1750 1753
2014 3 1751 1754
2015 1 1754 1755
2016 1 1754 1756
2017 1 1755 1757
2018 2 1755 1929
2019 1 1756 1758
2020 2 1756 1930
2021 1 1757 1759
2022 2 1757 1931
2023 1 1758 1759
2024 2 1758 1932
2025 3 1759 1760
2026 3 1760 1761
2027 3 1760 1762
2028 1 1761 1763
2029 4 1761 1764
2030 1 1762 1765
2031 4 1762 1766
2032 1 1763 1765
2033 1 1763 1767
2034 1 1765 1768
2035 1 1767 1769
2036 2 1767 1933
2037 1 1768 1770
2038 2 1768 1934
2039 1 1769 1770
2040 1 1769 1771
2041 1 1770 1772
2042 3 1771 1773
2043 4 1771 1774
2044 3 1772 1773
2045 4 1772 1775
2046 3 1773 1776
2047 1 1776 1777
2048 1 1776 1778
2049 1 1777 1779
2050 2 1777 1935
2051 1 1778 1780
2052 2 1778 1936
2053 1 1779 1781
2054 2 1779 1937
2055 1 1780 1781
2056 2 1780 1938
2057 3 1781 1782
2058 3 1782 1783
2059 3 1782 1784
2060 1 1783 1785
2061 4 1783 1786
2062 1 1784 1787
2063 4 1784 1788
2064 1 1785 1787
2065 1 1785 1789
2066 1 1787 1790
2067 1 1789 1791
2068 2 1789 1939
2069 1 1790 1792
2070 2 1790 1940
2071 1 1791 1792
2072 1 1791 1793
2073 1 1792 1794
2074 3 1793 1795
2075 4 1793 1796
2076 3 1794 1795
2077 4 1794 1797
2078 3 1795 1798
2079 1 1798 1799
2080 1 1798 1800
2081 1 1799 1801
2082 2 1799 1941
2083 1 1800 1802
2084 2 1800 1942
2085 1 1801 1803
2086 2 1801 1943
2087 1 1802 1803
2088 2 1802 1944
2089 3 1803 1804
2090 3 1804 1805
2091 3 1804 1806
2092 1 1805 1807
2093 4 1805 1808
2094 1 1806 1809
2095 4 1806 1810
2096 1 1807 1809
2097 1 1807 1811
2098 1 1809 1812
2099 1 1811 1813
2100 2 1811 1945
2101 1 1812 1814
2102 2 1812 1946
2103 1 1813 1814
2104 1 1813 1815
2105 1 1814 1816
2106 3 1815 1817
2107 4 1815 1818
2108 3 1816 1817
2109 4 1816 1819
2110 3 1817 1820
2111 1 1820 1821
2112 1 1820 1822
2113 1 1821 1823
2114 2 1821 1947
2115 1 1822 1824
2116 2 1822 1948
2117 1 1823 1825
2118 2 1823 1949
2119 1 1824 1825
2120 2 1824 1950
2121 3 1825 1826
2122 3 1826 1827
2123 3 1826 1828
2124 1 1827 1829
2125 4 1827 1830
2126 1 1828 1831
2127 4 1828 1832
2128 1 1829 1831
2129 1 1829 1833
2130 1 1831 1834
2131 1 1833 1835
2132 2 1833 1951
2133 1 1834 1836
2134 2 1834 1952
2135 1 1835 1836
2136 1 1835 1837
2137 1 1836 1838
2138 3 1837 1839
2139 4 1837 1840
2140 3 1838 1839
2141 4 1838 1841
2142 3 1839 1842
2143 1 1842 1843
2144 1 1842 1844
2145 1 1843 1845
2146 2 1843 1953
2147 1 1844 1846
2148 2 1844 1954
2149 1 1845 1847
2150 2 1845 1955
2151 1 1846 1847
2152 2 1846 1956
2153 3 1847 1848
2154 3 1848 1849
2155 3 1848 1850
2156 1 1849 1851
2157 4 1849 1852
2158 1 1850 1853
2159 4 1850 1854
2160 1 1851 1853
2161 1 1851 1855
2162 1 1853 1856
2163 1 1855 1857
2164 2 1855 1957
2165 1 1856 1858
2166 2 1856 1958
2167 1 1857 1858
2168 1 1857 1859
2169 1 1858 1860
2170 3 1859 1861
2171 4 1859 1862
2172 3 1860 1861
2173 4 1860 1863
2174 3 1861 1864
2175 1 1864 1865
2176 1 1864 1866
2177 1 1865 1867
2178 2 1865 1959
2179 1 1866 1868
2180 2 1866 1960
2181 1 1867 1869
2182 2 1867 1961
2183 1 1868 1869
2184 2 1868 1962
2185 3 1869 1870
2186 3 1870 1871
2187 3 1870 1872
2188 1 1871 1873
2189 4 1871 1874
2190 1 1872 1875
2191 4 1872 1876
2192 1 1873 1875
2193 1 1873 1877
2194 1 1875 1878
2195 1 1877 1879
2196 2 1877 1963
2197 1 1878 1880
2198 2 1878 1964
2199 1 1879 1880
2200 1 1879 1881
2201 1 1880 1882
2202 3 1881 1883
2203 4 1881 1884
2204 3 1882 1883
2205 4 1882 1885
2206 3 1883 1886
2207 1 1886 1887
2208 1 1886 1888
2209 1 1887 1889
2210 2 1887 1965
2211 1 1888 1890
2212 2 1888 1966
2213 1 1889 1891
2214 2 1889 1967
2215 1 1890 1891
2216 2 1890 1968
2217 3 1891 1892
2218 3 1892 1893
2219 3 1892 1894
2220 1 1893 1895
2221 4 1893 1896
2222 4 1894 1897
2223 1 1894 1898
2224 1 1895 1898
2225 1 1895 1899
2226 1 1898 1900
2227 1 1899 1901
2228 2 1899 1969
2229 1 1900 1902
2230 2 1900 1970
2231 1 1901 1902
2232 1 1901 1903
2233 1 1902 1904
2234 4 1903 1905
2235 3 1903 1906
2236 3 1904 1906
2237 4 1904 1907
2238 5 1906 1908
2239 1 1909 1911
2240 2 1909 1971
2241 1 1910 1912
2242 2 1910 1972
2243 1 1911 1913
2244 2 1911 1973
2245 1 1912 1913
2246 2 1912 1974
2247 2 1913 1914
2248 3 1975 1976
2249 3 1975 1977
2250 3 1975 1978
2251 1 1976 2191
2252 1 1976 2192
2253 1 1977 1979
2254 4 1977 1980
2255 1 1978 1981
2256 4 1978 1982
2257 1 1979 1981
2258 1 1979 1983
2259 1 1981 1984
2260 1 1983 1985
2261 2 1983 2197
2262 1 1984 1986
2263 2 1984 2198
2264 1 1985 1986
2265 1 1985 1987
2266 1 1986 1988
2267 3 1987 1989
2268 4 1987 1990
2269 3 1988 1989
2270 4 1988 1991
2271 3 1989 1992
2272 1 1992 1993
2273 1 1992 1994
2274 1 1993 1995
2275 2 1993 2199
2276 1 1994 1996
2277 2 1994 2200
2278 1 1995 1997
2279 2 1995 2201
2280 1 1996 1997
2281 2 1996 2202
2282 3 1997 1998
2283 3 1998 1999
2284 3 1998 2000
2285 1 1999 2001
2286 4 1999 2002
2287 1 2000 2003
2288 4 2000 2004
2289 1 2001 2003
2290 1 2001 2005
2291 1 2003 2006
2292 1 2005 2007
2293 2 2005 2203
2294 1 2006 2008
2295 2 2006 2204
2296 1 2007 2008
2297 1 2007 2009
2298 1 2008 2010
2299 3 2009 2011
2300 4 2009 2012
2301 3 2010 2011
2302 4 2010 2013
2303 3 2011 2014
2304 1 2014 2015
2305 1 2014 2016
2306 1 2015 2017
2307 2 2015 2205
2308 1 2016 2018
2309 2 2016 2206
2310 1 2017 2019
2311 2 2017 2207
2312 1 2018 2019
2313 2 2018 2208
2314 3 2019 2020
2315 3 2020 2021
2316 3 2020 2022
2317 1 2021 2023
2318 4 2021 2024
2319 1 2022 2025
2320 4 2022 2026
2321 1 2023 2025
2322 1 2023 2027
2323 1 2025 2028
2324 1 2027 2029
2325 2 2027 2209
2326 1 2028 2030
2327 2 2028 2210
2328 1 2029 2030
2329 1 2029 2031
2330 1 2030 2032
2331 3 2031 2033
2332 4 2031 2034
2333 3 2032 2033
2334 4 2032 2035
2335 3 2033 2036
2336 1 2036 2037
2337 1 2036 2038
2338 1 2037 2039
2339 2 2037 2211
2340 1 2038 2040
2341 2 2038 2212
2342 1 2039 2041
2343 2 2039 2213
2344 1 2040 2041
2345 2 2040 2214
2346 3 2041 2042
2347 3 2042 2043
2348 3 2042 2044
2349 1 2043 2045
2350 4 2043 2046
2351 1 2044 2047
2352 4 2044 2048
2353 1 2045 2047
2354 1 2045 2049
2355 1 2047 2050
2356 1 2049 2051
2357 2 2049 2215
2358 1 2050 2052
2359 2 2050 2216
2360 1 2051 2052
2361 1 2051 2053
2362 1 2052 2054
2363 3 2053 2055
2364 4 2053 2056
2365 3 2054 2055
2366 4 2054 2057
2367 3 2055 2058
2368 1 2058 2059
2369 1 2058 2060
2370 1 2059 2061
2371 2 2059 2217
2372 1 2060 2062
2373 2 2060 2218
2374 1 2061 2063
2375 2 2061 2219
2376 1 2062 2063
2377 2 2062 2220
2378 3 2063 2064
2379 3 2064 2065
2380 3 2064 2066
2381 1 2065 2067
2382 4 2065 2068
2383 1 2066 2069
2384 4 2066 2070
2385 1 2067 2069
2386 1 2067 2071
2387 1 2069 2072
2388 1 2071 2073
2389 2 2071 2221
2390 1 2072 2074
2391 2 2072 2222
2392 1 2073 2074
2393 1 2073 2075
2394 1 2074 2076
2395 3 2075 2077
2396 4 2075 2078
2397 3 2076 2077
2398 4 2076 2079
2399 3 2077 2080
2400 1 2080 2081
2401 1 2080 2082
2402 1 2081 2083
2403 2 2081 2223
2404 1 2082 2084
2405 2 2082 2224
2406 1 2083 2085
2407 2 2083 2225
2408 1 2084 2085
2409 2 2084 2226
2410 3 2085 2086
2411 3 2086 2087
2412 3 2086 2088
2413 1 2087 2089
2414 4 2087 2090
2415 1 2088 2091
2416 4 2088 2092
2417 1 2089 2091
2418 1 2089 2093
2419 1 2091 2094
2420 1 2093 2095
2421 2 2093 2227
2422 1 2094 2096
2423 2 2094 2228
2424 1 2095 2096
2425 1 2095 2097
2426 1 2096 2098
2427 3 2097 2099
2428 4 2097 2100
2429 3 2098 2099
2430 4 2098 2101
2431 3 2099 2102
2432 1 2102 2103
2433 1 2102 2104
2434 1 2103 2105
2435 2 2103 2229
2436 1 2104 2106
2437 2 2104 2230
2438 1 2105 2107
2439 2 2105 2231
2440 1 2106 2107
2441 2 2106 2232
2442 3 2107 2108
2443 3 2108 2109
2444 3 2108 2110
2445 1 2109 2111
2446 4 2109 2112
2447 1 2110 2113
2448 4 2110 2114
2449 1 2111 2113
2450 1 2111 2115
2451 1 2113 2116
2452 1 2115 2117
2453 2 2115 2233
2454 1 2116 2118
2455 2 2116 2234
2456 1 2117 2118
2457 1 2117 2119
2458 1 2118 2120
2459 3 2119 2121
2460 4 2119 2122
2461 3 2120 2121
2462 4 2120 2123
2463 3 2121 2124
2464 1 2124 2125
2465 1 2124 2126
2466 1 2125 2127
2467 2 2125 2235
2468 1 2126 2128
2469 2 2126 2236
2470 1 2127 2129
2471 2 2127 2237
2472 1 2128 2129
2473 2 2128 2238
2474 3 2129 2130
2475 3 2130 2131
2476 3 2130 2132
2477 1 2131 2133
2478 4 2131 2134
2479 1 2132 2135
2480 4 2132 2136
2481 1 2133 2135
2482 1 2133 2137
2483 1 2135 2138
2484 1 2137 2139
2485 2 2137 2239
2486 1 2138 2140
2487 2 2138 2240
2488 1 2139 2140
2489 1 2139 2141
2490 1 2140 2142
2491 3 2141 2143
2492 4 2141 2144
2493 3 2142 2143
2494 4 2142 2145
2495 3 2143 2146
2496 1 2146 2147
2497 1 2146 2148
2498 1 2147 2149
2499 2 2147 2241
2500 1 2148 2150
2501 2 2148 2242
2502 1 2149 2151
2503 2 2149 2243
2504 1 2150 2151
2505 2 2150 2244
2506 3 2151 2152
2507 3 2152 2153
2508 3 2152 2154
2509 1 2153 2155
2510 4 2153 2156
2511 1 2154 2157
2512 4 2154 2158
2513 1 2155 2157
2514 1 2155 2159
2515 1 2157 2160
2516 1 2159 2161
2517 2 2159 2245
2518 1 2160 2162
2519 2 2160 2246
2520 1 2161 2162
2521 1 2161 2163
2522 1 2162 2164
2523 3 2163 2165
2524 4 2163 2166
2525 3 2164 2165
2526 4 2164 2167
2527 3 2165 2168
2528 1 2168 2169
2529 1 2168 2170
2530 1 2169 2171
2531 2 2169 2247
2532 1 2170 2172
2533 2 2170 2248
2534 1 2171 2173
2535 2 2171 2249
2536 1 2172 2173
2537 2 2172 2250
2538 3 2173 2174
2539 3 2174 2175
2540 3 2174 2176
2541 1 2175 2177
2542 4 2175 2178
2543 4 2176 2179
2544 1 2176 2180
2545 1 2177 2180
2546 1 2177 2181
2547 1 2180 2182
2548 1 2181 2183
2549 2 2181 2251
2550 1 2182 2184
2551 2 2182 2252
2552 1 2183 2184
2553 1 2183 2185
2554 1 2184 2186
2555 4 2185 2187
2556 3 2185 2188
2557 3 2186 2188
2558 4 2186 2189
2559 5 2188 2190
2560 1 2191 2193
2561 2 2191 2253
2562 1 2192 2194
2563 2 2192 2254
2564 1 2193 2195
2565 2 2193 2255
2566 1 2194 2195
2567 2 2194 2256
2568 2 2195 2196
2569 3 2257 2258
2570 3 2257 2259
2571 3 2257 2260
2572 1 2258 2473
2573 1 2258 2474
2574 1 2259 2261
2575 4 2259 2262
2576 1 2260 2263
2577 4 2260 2264
2578 1 2261 2263
2579 1 2261 2265
2580 1 2263 2266
2581 1 2265 2267
2582 2 2265 2479
2583 1 2266 2268
2584 2 2266 2480
2585 1 2267 2268
2586 1 2267 2269
2587 1 2268 2270
2588 3 2269 2271
2589 4 2269 2272
2590 3 2270 2271
2591 4 2270 2273
2592 3 2271 2274
2593 1 2274 2275
2594 1 2274 2276
2595 1 2275 2277
2596 2 2275 2481
2597 1 2276 2278
2598 2 2276 2482
2599 1 2277 2279
2600 2 2277 2483
2601 1 2278 2279
2602 2 2278 2484
2603 3 2279 2280
2604 3 2280 2281
2605 3 2280 2282
2606 1 2281 2283
2607 4 2281 2284
2608 1 2282 2285
2609 4 2282 2286
2610 1 2283 2285
2611 1 2283 2287
2612 1 2285 2288
2613 1 2287 2289
2614 2 2287 2485
2615 1 2288 2290
2616 2 2288 2486
2617 1 2289 2290
2618 1 2289 2291
2619 1 2290 2292
2620 3 2291 2293
2621 4 2291 2294
2622 3 2292 2293
2623 4 2292 2295
2624 3 2293 2296
2625 1 2296 2297
2626 1 2296 2298
2627 1 2297 2299
2628 2 2297 2487
2629 1 2298 2300
2630 2 2298 2488
2631 1 2299 2301
2632 2 2299 2489
2633 1 2300 2301
2634 2 2300 2490
2635 3 2301 2302
2636 3 2302 2303
2637 3 2302 2304
2638 1 2303 2305
2639 4 2303 2306
2640 1 2304 2307
2641 4 2304 2308
2642 1 2305 2307
2643 1 2305 2309
2644 1 2307 2310
2645 1 2309 2311
2646 2 2309 2491
2647 1 2310 2312
2648 2 2310 2492
2649 1 2311 2312
2650 1 2311 2313
2651 1 2312 2314
2652 3 2313 2315
2653 4 2313 2316
2654 3 2314 2315
2655 4 2314 2317
2656 3 2315 2318
2657 1 2318 2319
2658 1 2318 2320
2659 1 2319 2321
2660 2 2319 2493
2661 1 2320 2322
2662 2 2320 2494
2663 1 2321 2323
2664 2 2321 2495
2665 1 2322 2323
2666 2 2322 2496
2667 3 2323 2324
2668 3 2324 2325
2669 3 2324 2326
2670 1 2325 2327
2671 4 2325 2328
2672 1 2326 2329
2673 4 2326 2330
2674 1 2327 2329
2675 1 2327 2331
2676 1 2329 2332
2677 1 2331 2333
2678 2 2331 2497
2679 1 2332 2334
2680 2 2332 2498
2681 1 2333 2334
2682 1 2333 2335
2683 1 2334 2336
2684 3 2335 2337
2685 4 2335 2338
2686 3 2336 2337
2687 4 2336 2339
2688 3 2337 2340
2689 1 2340 2341
2690 1 2340 2342
2691 1 2341 2343
2692 2 2341 2499
2693 1 2342 2344
2694 2 2342 2500
2695 1 2343 2345
2696 2 2343 2501
2697 1 2344 2345
2698 2 2344 2502
2699 3 2345 2346
2700 3 2346 2347
2701 3 2346 2348
2702 1 2347 2349
2703 4 2347 2350
2704 1 2348 2351
2705 4 2348 2352
2706 1 2349 2351
2707 1 2349 2353
2708 1 2351 2354
2709 1 2353 2355
2710 2 2353 2503
2711 1 2354 2356
2712 2 2354 2504
2713 1 2355 2356
2714 1 2355 2357
2715 1 2356 2358
2716 3 2357 2359
2717 4 2357 2360
2718 3 2358 2359
2719 4 2358 2361
2720 3 2359 2362
2721 1 2362 2363
2722 1 2362 2364
2723 1 2363 2365
2724 2 2363 2505
2725 1 2364 2366
2726 2 2364 2506
2727 1 2365 2367
2728 2 2365 2507
2729 1 2366 2367
2730 2 2366 2508
2731 3 2367 2368
2732 3 2368 2369
2733 3 2368 2370
2734 1 2369 2371
2735 4 2369 2372
2736 1 2370 2373
2737 4 2370 2374
2738 1 2371 2373
2739 1 2371 2375
2740 1 2373 2376
2741 1 2375 2377
2742 2 2375 2509
2743 1 2376 2378
2744 2 2376 2510
2745 1 2377 2378
2746 1 2377 2379
2747 1 2378 2380
2748 3 2379 2381
2749 4 2379 2382
2750 3 2380 2381
2751 4 2380 2383
2752 3 2381 2384
2753 1 2384 2385
2754 1 2384 2386
2755 1 2385 2387
2756 2 2385 2511
2757 1 2386 2388
2758 2 2386 2512
2759 1 2387 2389
2760 2 2387 2513
2761 1 2388 2389
2762 2 2388 2514
2763 3 2389 2390
2764 3 2390 2391
2765 3 2390 2392
2766 1 2391 2393
2767 4 2391 2394
2768 1 2392 2395
2769 4 2392 2396
2770 1 2393 2395
2771 1 2393 2397
2772 1 2395 2398
2773 1 2397 2399
2774 2 2397 2515
2775 1 2398 2400
2776 2 2398 2516
2777 1 2399 2400
2778 1 2399 2401
2779 1 2400 2402
2780 3 2401 2403
2781 4 2401 2404
2782 3 2402 2403
2783 4 2402 2405
2784 3 2403 2406
2785 1 2406 2407
2786 1 2406 2408
2787 1 2407 2409
2788 2 2407 2517
2789 1 2408 2410
2790 2 2408 2518
2791 1 2409 2411
2792 2 2409 2519
2793 1 2410 2411
2794 2 2410 2520
2795 3 2411 2412
2796 3 2412 2413
2797 3 2412 2414
2798 1 2413 2415
2799 4 2413 2416
2800 1 2414 2417
2801 4 2414 2418
2802 1 2415 2417
2803 1 2415 2419
2804 1 2417 2420
2805 1 2419 2421
2806 2 2419 2521
2807 1 2420 2422
2808 2 2420 2522
2809 1 2421 2422
2810 1 2421 2423
2811 1 2422 2424
2812 3 2423 2425
2813 4 2423 2426
2814 3 2424 2425
2815 4 2424 2427
2816 3 2425 2428
2817 1 2428 2429
2818 1 2428 2430
2819 1 2429 2431
2820 2 2429 2523
2821 1 2430 2432
2822 2 2430 2524
2823 1 2431 2433
2824 2 2431 2525
2825 1 2432 2433
2826 2 2432 2526
2827 3 2433 2434
2828 3 2434 2435
2829 3 2434 2436
2830 1 2435 2437
2831 4 2435 2438
2832 1 2436 2439
2833 4 2436 2440
2834 1 2437 2439
2835 1 2437 2441
2836 1 2439 2442
2837 1 2441 2443
2838 2 2441 2527
2839 1 2442 2444
2840 2 2442 2528
2841 1 2443 2444
2842 1 2443 2445
2843 1 2444 2446
2844 3 2445 2447
2845 4 2445 2448
2846 3 2446 2447
2847 4 2446 2449
2848 3 2447 2450
2849 1 2450 2451
2850 1 2450 2452
2851 1 2451 2453
2852 2 2451 2529
2853 1 2452 2454
2854 2 2452 2530
2855 1 2453 2455
2856 2 2453 2531
2857 1 2454 2455
2858 2 2454 2532
2859 3 2455 2456
2860 3 2456 2457
2861 3 2456 2458
2862 1 2457 2459
2863 4 2457 2460
2864 4 2458 2461
2865 1 2458 2462
2866 1 2459 2462
2867 1 2459 2463
2868 1 2462 2464
2869 1 2463 2465
2870 2 2463 2533
2871 1 2464 2466
2872 2 2464 2534
2873 1 2465 2466
2874 1 2465 2467
2875 1 2466 2468
2876 4 2467 2469
2877 3 2467 2470
2878 3 2468 2470
2879 4 2468 2471
2880 5 2470 2472
2881 1 2473 2475
2882 2 2473 2535
2883 1 2474 2476
2884 2 2474 2536
2885 1 2475 2477
2886 2 2475 2537
2887 1 2476 2477
2888 2 2476 2538
2889 2 2477 2478
2890 3 2539 2540
2891 3 2539 2541
2892 3 2539 2542
2893 1 2540 2755
2894 1 2540 2756
2895 1 2541 2543
2896 4 2541 2544
2897 1 2542 2545
2898 4 2542 2546
2899 1 2543 2545
2900 1 2543 2547
2901 1 2545 2548
2902 1 2547 2549
2903 2 2547 2761
2904 1 2548 2550
2905 2 2548 2762
2906 1 2549 2550
2907 1 2549 2551
2908 1 2550 2552
2909 3 2551 2553
2910 4 2551 2554
2911 3 2552 2553
2912 4 2552 2555
2913 3 2553 2556
2914 1 2556 2557
2915 1 2556 2558
2916 1 2557 2559
2917 2 2557 2763
2918 1 2558 2560
2919 2 2558 2764
2920 1 2559 2561
2921 2 2559 2765
2922 1 2560 2561
2923 2 2560 2766
2924 3 2561 2562
2925 3 2562 2563
2926 3 2562 2564
2927 1 2563 2565
2928 4 2563 2566
2929 1 2564 2567
2930 4 2564 2568
2931 1 2565 2567
2932 1 2565 2569
2933 1 2567 2570
2934 1 2569 2571
2935 2 2569 2767
2936 1 2570 2572
2937 2 2570 2768
2938 1 2571 2572
2939 1 2571 2573
2940 1 2572 2574
2941 3 2573 2575
2942 4 2573 2576
2943 3 2574 2575
2944 4 2574 2577
2945 3 2575 2578
2946 1 2578 2579
2947 1 2578 2580
2948 1 2579 2581
2949 2 2579 2769
2950 1 2580 2582
2951 2 2580 2770
2952 1 2581 2583
2953 2 2581 2771
2954 1 2582 2583
2955 2 2582 2772
2956 3 2583 2584
2957 3 2584 2585
2958 3 2584 2586
2959 1 2585 2587
2960 4 2585 2588
2961 1 2586 2589
2962 4 2586 2590
2963 1 2587 2589
2964 1 2587 2591
2965 1 2589 2592
2966 1 2591 2593
2967 2 2591 2773
2968 1 2592 2594
2969 2 2592 2774
2970 1 2593 2594
2971 1 2593 2595
2972 1 2594 2596
2973 3 2595 2597
2974 4 2595 2598
2975 3 2596 2597
2976 4 2596 2599
2977 3 2597 2600
2978 1 2600 2601
2979 1 2600 2602
2980 1 2601 2603
2981 2 2601 2775
2982 1 2602 2604
2983 2 2602 2776
2984 1 2603 2605
2985 2 2603 2777
2986 1 2604 2605
2987 2 2604 2778
2988 3 2605 2606
2989 3 2606 2607
2990 3 2606 2608
2991 1 2607 2609
2992 4 2607 2610
2993 1 2608 2611
2994 4 2608 2612
2995 1 2609 2611
2996 1 2609 2613
2997 1 2611 2614
2998 1 2613 2615
2999 2 2613 2779
3000 1 2614 2616
3001 2 2614 2780
3002 1 2615 2616
3003 1 2615 2617
3004 1 2616 2618
3005 3 2617 2619
3006 4 2617 2620
3007 3 2618 2619
3008 4 2618 2621
3009 3 2619 2622
3010 1 2622 2623
3011 1 2622 2624
3012 1 2623 2625
3013 2 2623 2781
3014 1 2624 2626
3015 2 2624 2782
3016 1 2625 2627
3017 2 2625 2783
3018 1 2626 2627
3019 2 2626 2784
3020 3 2627 2628
3021 3 2628 2629
3022 3 2628 2630
3023 1 2629 2631
3024 4 2629 2632
3025 1 2630 2633
3026 4 2630 2634
3027 1 2631 2633
3028 1 2631 2635
3029 1 2633 2636
3030 1 2635 2637
3031 2 2635 2785
3032 1 2636 2638
3033 2 2636 2786
3034 1 2637 2638
3035 1 2637 2639
3036 1 2638 2640
3037 3 2639 2641
3038 4 2639 2642
3039 3 2640 2641
3040 4 2640 2643
3041 3 2641 2644
3042 1 2644 2645
3043 1 2644 2646
3044 1 2645 2647
3045 2 2645 2787
3046 1 2646 2648
3047 2 2646 2788
3048 1 2647 2649
3049 2 2647 2789
3050 1 2648 2649
3051 2 2648 2790
3052 3 2649 2650
3053 3 2650 2651
3054 3 2650 2652
3055 1 2651 2653
3056 4 2651 2654
3057 1 2652 2655
3058 4 2652 2656
3059 1 2653 2655
3060 1 2653 2657
3061 1 2655 2658
3062 1 2657 2659
3063 2 2657 2791
3064 1 2658 2660
3065 2 2658 2792
3066 1 2659 2660
3067 1 2659 2661
3068 1 2660 2662
3069 3 2661 2663
3070 4 2661 2664
3071 3 2662 2663
3072 4 2662 2665
3073 3 2663 2666
3074 1 2666 2667
3075 1 2666 2668
3076 1 2667 2669
3077 2 2667 2793
3078 1 2668 2670
3079 2 2668 2794
3080 1 2669 2671
3081 2 2669 2795
3082 1 2670 2671
3083 2 2670 2796
3084 3 2671 2672
3085 3 2672 2673
3086 3 2672 2674
3087 1 2673 2675
3088 4 2673 2676
3089 1 2674 2677
3090 4 2674 2678
3091 1 2675 2677
3092 1 2675 2679
3093 1 2677 2680
3094 1 2679 2681
3095 2 2679 2797
3096 1 2680 2682
3097 2 2680 2798
3098 1 2681 2682
3099 1 2681 2683
3100 1 2682 2684
3101 3 2683 2685
3102 4 2683 2686
3103 3 2684 2685
3104 4 2684 2687
3105 3 2685 2688
3106 1 2688 2689
3107 1 2688 2690
3108 1 2689 2691
3109 2 2689 2799
3110 1 2690 2692
3111 2 2690 2800
3112 1 2691 2693
3113 2 2691 2801
3114 1 2692 2693
3115 2 2692 2802
3116 3 2693 2694
3117 3 2694 2695
3118 3 2694 2696
3119 1 2695 2697
3120 4 2695 2698
3121 1 2696 2699
3122 4 2696 2700
3123 1 2697 2699
3124 1 2697 2701
3125 1 2699 2702
3126 1 2701 2703
3127 2 2701 2803
3128 1 2702 2704
3129 2 2702 2804
3130 1 2703 2704
3131 1 2703 2705
3132 1 2704 2706
3133 3 2705 2707
3134 4 2705 2708
3135 3 2706 2707
3136 4 2706 2709
3137 3 2707 2710
3138 1 2710 2711
3139 1 2710 2712
3140 1 2711 2713
3141 2 2711 2805
3142 1 2712 2714
3143 2 2712 2806
3144 1 2713 2715
3145 2 2713 2807
3146 1 2714 2715
3147 2 2714 2808
3148 3 2715 2716
3149 3 2716 2717
3150 3 2716 2718
3151 1 2717 2719
3152 4 2717 2720
3153 1 2718 2721
3154 4 2718 2722
3155 1 2719 2721
3156 1 2719 2723
3157 1 2721 2724
3158 1 2723 2725
3159 2 2723 2809
3160 1 2724 2726
3161 2 2724 2810
3162 1 2725 2726
3163 1 2725 2727
3164 1 2726 2728
3165 3 2727 2729
3166 4 2727 2730
3167 3 2728 2729
3168 4 2728 2731
3169 3 2729 2732
3170 1 2732 2733
3171 1 2732 2734
3172 1 2733 2735
3173 2 2733 2811
3174 1 2734 2736
3175 2 2734 2812
3176 1 2735 2737
3177 2 2735 2813
3178 1 2736 2737
3179 2 2736 2814
3180 3 2737 2738
3181 3 2738 2739
3182 3 2738 2740
3183 1 2739 2741
3184 4 2739 2742
3185 4 2740 2743
3186 1 2740 2744
3187 1 2741 2744
3188 1 2741 2745
3189 1 2744 2746
3190 1 2745 2747
3191 2 2745 2815
3192 1 2746 2748
3193 2 2746 2816
3194 1 2747 2748
3195 1 2747 2749
3196 1 2748 2750
3197 4 2749 2751
3198 3 2749 2752
3199 3 2750 2752
3200 4 2750 2753
3201 5 2752 2754
3202 1 2755 2757
3203 2 2755 2817
3204 1 2756 2758
3205 2 2756 2818
3206 1 2757 2759
3207 2 2757 2819
3208 1 2758 2759
3209 2 2758 2820
3210 2 2759 2760
