ITEM: TIMESTEP
5000
ITEM: NUMBER OF ATOMS
2820
ITEM: BOX BOUNDS pp pp pp
0.0000000000000000e+00 6.0000000000000000e+01
0.0000000000000000e+00 6.0000000000000000e+01
0.0000000000000000e+00 6.0000000000000000e+01
ITEM: ATOMS id mol type x y z vx vy vz
2677 10 1 5.03149 4.62336 4.61036 -0.0041394 -0.00237226 -0.00449306
2670 10 1 6.00953 4.40592 6.32513 -0.00477219 -0.00308203 -0.00238075
237 1 2 4.49947 4.26421 0.243652 -0.0412854 -0.00498232 0.0345067
2664 10 4 13.3429 1.9583 4.43795 -0.00231242 -0.00485068 -0.00166682
2737 10 1 11.9856 4.6161 4.72264 -0.000106175 -0.00436956 -0.000332943
2752 10 3 9.01543 5.84251 4.18241 -0.00241343 -0.00685739 4.21645e-05
2358 9 1 7.88513 1.78801 0.502743 -0.00141995 0.00637161 -0.0046493
2683 10 1 14.2512 2.91613 6.19208 -0.000579133 -0.00166675 -0.00472677
2028 8 1 16.2436 2.66903 3.80131 0.00245463 -0.00618119 -0.0100123
2110 8 1 16.5363 7.2141 6.16856 0.000980135 -0.00436516 -0.00413698
2749 10 1 27.1461 0.169819 5.85801 0.00466163 -0.00878327 0.000333606
256 1 2 25.4642 1.96201 3.7818 -0.00352513 -0.0074644 0.00720872
2505 9 2 24.7943 4.23086 0.116438 -0.0181831 -0.0177029 -0.00514822
554 2 2 27.8071 5.24644 0.0495543 -0.00242075 0.0181866 0.0115726
2651 10 1 30.324 5.73593 5.69593 0.00265519 -0.00447403 -0.000904827
2547 10 1 34.1002 6.36697 1.1502 0.0084689 -0.00731961 -0.00493712
1923 7 2 30.1557 3.57336 4.66821 0.000446688 0.0111397 0.00857809
2217 8 2 33.7206 1.94675 6.73072 -0.019733 -0.0305269 -0.0290921
812 3 2 44.114 0.979873 3.20154 0.01776 -0.0114997 -0.0178522
1193 5 1 40.2716 4.87218 1.21871 0.00287222 0.00910607 0.00730148
1097 4 2 40.0305 5.1706 1.72439 0.0444002 0.0106238 0.0118254
221 1 1 45.3835 0.866595 1.65612 0.00480819 -0.00465536 0.00178245
785 3 1 46.295 5.0006 6.11204 -0.00365679 -0.00488096 0.00361282
4 1 1 51.9206 0.990935 4.03796 0.00736823 -0.00388643 0.00468558
55 1 1 47.3952 5.71013 7.10308 0.000408897 -0.00276115 -0.0107384
2697 10 1 55.4663 6.04012 3.68759 -0.0056015 0.00176925 -0.00544257
1121 4 2 58.7517 7.0898 5.41858 0 0 0
1054 4 1 52.7056 3.67288 7.26697 0.00208342 0.00548555 -0.00622001
2798 10 2 56.394 5.94418 7.08635 0.0172236 -0.00182353 0.0201997
5 1 1 56.2277 5.87588 0.122435 0.0085139 -0.00126365 0.00322817
2710 10 1 5.84449 13.463 5.16731 -0.000710604 0.00421318 -0.00275307
1359 5 2 0.329627 14.6053 5.26558 0 0 0
2774 10 2 4.22877 8.96057 2.66855 -0.00247649 0.000116227 0.0146434
2473 9 1 9.24477 7.93436 2.96031 -0.00293289 0.00475254 -0.00828587
2164 8 1 11.3873 7.999 6.25423 0.00122292 -0.0029028 -0.000863109
2153 8 1 8.39767 8.16462 4.52109 -0.00014893 -0.00146895 -0.00325076
2126 8 1 9.53271 14.5105 5.86607 -0.00144332 0.00104462 -0.00611317
2726 10 1 23.9622 11.403 1.39113 0.00569609 0.000656407 -0.00224195
2510 9 2 29.4105 9.18114 5.70086 0.00610259 0.00832645 -0.00524926
2634 10 4 28.6165 10.3094 7.15271 0.00050021 -0.00173303 -0.00439091
2780 10 2 23.0561 12.0621 6.20848 -0.0232796 -0.0220544 -0.00570661
1093 4 2 36.2092 12.6688 0.517299 -0.00292831 0.0162451 -0.0130791
2652 10 1 34.1581 7.76477 6.11298 0.00422045 -0.00421729 -0.00139881
2642 10 4 32.4923 10.0693 6.25479 0.00110651 -0.00168947 -0.00199928
1563 6 1 33.4177 11.9194 4.95549 0.00022628 -0.00702665 -0.0078074
2497 9 2 30.997 14.2859 2.03909 -0.0202924 0.0152844 0.01993
200 1 3 36.1003 13.8491 1.02299 0.0035241 -0.000398379 0.005164
413 2 1 32.5217 12.3068 4.34002 -0.00246371 -0.00451569 0.00902201
2086 8 3 38.4703 7.62792 6.91538 0.00637172 -0.00625443 -0.000759849
122 1 1 44.005 10.3328 4.14272 0.00363881 -0.00349208 0.00568589
684 3 1 41.157 13.8236 2.38444 -0.00500198 -0.00406374 0.00460898
718 3 1 49.6645 10.4963 0.69506 0.000866983 -0.0050871 0.0108324
15 1 3 48.5461 12.5463 1.87294 0.00518203 0.00204611 0.00561877
1375 5 2 53.6629 8.95829 5.81521 0.00168797 0.0127845 -0.0125115
1108 4 2 1.64755 18.4561 2.13241 0 0 0
2707 10 3 2.91452 21.6147 7.30906 0 0 0
2099 8 3 3.01188 17.4336 6.5846 -0.00561525 -0.00143055 -0.00187776
196 1 1 7.00542 16.6349 3.25238 -0.00815503 -5.08419e-05 0.00734175
1946 7 2 1.57856 17.2808 0.833009 0 0 0
92 1 1 0.750465 22.1208 0.958992 0 0 0
568 3 1 8.83511 15.4401 5.25409 0.00591884 6.80301e-05 0.00511684
2097 8 1 8.03722 19.0643 2.23223 -0.00382951 -0.000598686 -0.00315551
2663 10 3 10.6247 19.2413 4.88478 -0.00325531 0.00156492 -0.00225849
2102 8 1 9.89616 16.0926 4.44721 -0.00261914 -0.00164617 -0.00314911
502 2 1 14.5612 17.6954 7.1699 -0.00838312 0.00107977 0.00649396
802 3 2 9.27356 17.689 4.41854 0.00560342 0.0223788 -0.0114038
1743 7 1 9.15882 21.4719 0.270985 -0.00704887 -0.00399365 0.00515919
222 1 2 15.8327 18.9489 5.2856 -0.00694291 0.00237917 0.00285544
2691 10 1 19.9229 17.5876 3.60962 0.00321678 0.00516943 -0.00653855
2811 10 2 17.3335 20.9858 4.56894 -0.020813 0.00286832 -0.000624423
551 2 2 18.3485 21.7752 6.71586 0.0167682 0.0224137 -0.00924046
2134 8 4 22.2961 17.8547 7.33777 0.00449484 0.00388829 -0.00582009
2119 8 1 17.1964 16.9062 5.15927 0.000984567 0.000990084 -0.00612869
230 1 2 19.0663 15.8937 7.19244 -0.00759267 0.0279663 -0.0366978
2739 10 1 23.3167 15.2094 3.7774 0.00383509 -0.000922649 -0.000872641
2096 8 1 25.2673 15.0816 5.85846 0.00275011 -0.00301056 -0.00182782
2758 10 1 22.7663 22.1447 2.95354 0.00179413 -0.00158253 -0.00253378
1746 7 1 23.7582 18.1852 1.67249 -0.000690717 -0.0051059 0.0056446
2507 9 2 23.86 22.1778 2.56815 -0.0185636 0.0130391 0.0189485
2636 10 1 30.093 16.6448 4.78758 0.000666381 0.000367926 -0.00430217
208 1 1 31.0401 15.5119 5.20167 0.00186444 0.000769544 0.00552467
2419 9 1 30.3075 18.844 5.44522 0.00395379 -0.00461001 -0.00967791
2072 8 1 34.8619 16.535 6.95684 0.00322835 -0.00261199 -0.00349806
2485 9 2 30.7303 17.9525 6.93781 -0.000384293 -0.0114658 -0.00653968
1792 7 1 30.8797 21.2254 4.80465 0.00282387 0.00387136 0.0116763
206 1 1 33.1882 15.4772 1.3932 0.00250527 0.000548098 0.00447408
688 3 1 35.3043 15.5712 1.91055 -0.00688229 -0.00296151 0.00521262
2226 8 2 41.3697 15.1992 0.891819 -0.0409729 -0.00230632 -0.00342687
1976 8 1 40.1021 19.5483 2.80646 0.0105836 -0.00431107 -0.00223022
2049 8 1 38.5817 18.2608 1.45619 0.00677987 3.55142e-05 -0.00948753
1587 6 1 43.5511 18.8797 5.10785 0.00114244 -0.00232972 -0.00567286
491 2 1 41.5884 21.5617 0.0916058 0.00387537 0.00252748 0.00631824
1970 7 2 42.5278 16.4066 0.884868 -0.0152105 -0.00409495 0.0155691
562 2 2 52.312 19.3719 2.60429 0.00594799 0.00152516 0.00498452
2716 10 3 52.4077 21.4131 6.11191 -0.00655892 0.00619364 -0.00128044
1704 7 1 45.64 20.2022 5.10297 0.00694118 -0.00302952 -0.00950681
462 2 1 52.0611 18.6987 4.9948 0.00662403 -0.00130971 -0.0100413
1646 6 2 49.5495 20.0419 4.99895 -0.0392646 -0.00580242 -0.00705282
272 1 2 55.2449 17.7259 2.67014 -0.0118208 0.024822 -0.0145191
2183 8 1 3.13456 27.1192 2.6933 -0.00375897 0.000828492 -0.000853481
2137 8 1 1.22331 28.5158 3.31769 0 0 0
846 3 2 6.493 27.8758 1.95766 0.0037348 0.00388233 0.00229786
2541 10 1 6.84348 26.5346 1.02768 -0.00309261 0.000486648 -0.00426053
609 3 1 5.27886 25.058 6.43001 0.00295715 0.00462319 -0.0103452
2215 8 2 5.44618 28.1089 5.37359 0.0173973 0.00365635 -0.00818416
2178 8 4 8.93273 29.8369 4.09704 -0.00142091 0.00329155 -0.00138399
2575 10 3 8.63009 27.2195 3.58487 0.000602837 0.00430341 -0.00854005
2011 8 3 12.9779 25.1799 2.75936 0.00289798 0.000243963 0.0148857
1975 8 3 16.4032 29.0384 6.16564 0.00148127 -0.000366239 -0.00129535
2733 10 1 18.4994 29.0324 6.38689 0.00322896 0.00601855 0.000157957
1999 8 1 15.8477 26.8491 5.41056 0.0038171 -0.000242744 -0.00600737
2012 8 4 20.1549 26.3245 7.36675 0.00553197 -0.000183406 -0.0074141
1110 4 2 17.8758 28.5887 4.64026 -0.0038885 -0.00481011 -0.0321247
1071 4 2 21.788 26.5144 2.60181 0.0172012 -0.0101007 0.0125251
922 4 1 19.5823 28.5498 4.17959 -0.00496867 -0.00315489 0.0121786
2644 10 1 27.4611 26.2803 4.53221 -0.000211157 0.00385571 -0.00251112
98 1 1 22.7363 25.3402 7.23329 -0.0082047 0.000380095 0.00660492
2084 8 1 29.1059 22.6765 6.57799 0.00188876 0.000327803 -0.0012216
2314 9 1 26.4683 24.9631 1.71195 -0.000726262 -0.00358235 -0.00718442
1559 6 4 27.6376 26.9961 7.40757 -0.00313094 -0.00207474 -0.00624217
1633 6 2 24.9777 28.3173 6.07411 0.0166507 -0.0309555 -0.00340396
1666 6 2 26.71 28.5482 4.29977 -0.0075928 -0.00286593 0.0156739
2756 10 1 33.0787 26.9497 5.00416 0.00630268 0.000564276 -0.00205314
1872 7 1 30.4388 23.8101 0.625627 0.00715874 -0.00322596 0.0107471
280 1 2 30.563 29.3444 7.47623 -0.00211841 0.00698414 0.0290049
1741 7 1 34.2883 23.7378 1.46106 0.00255053 -0.00280767 0.00547842
1399 5 2 32.187 26.3882 0.419624 -0.00274441 -0.00946592 0.0129258
1642 6 2 31.4224 28.6882 7.03143 0.000968946 -0.0289255 0.0195342
2662 10 1 40.1779 22.614 5.09168 0.00834755 0.00245121 -0.00235693
2767 10 2 43.7933 24.9234 0.596945 -0.00968069 0.00186176 -0.00915642
1943 7 2 40.3881 28.2749 7.32682 0.00654324 0.00601076 -0.00888047
2768 10 2 40.8076 23.3874 7.02662 -0.0103134 -0.0211362 -0.00551775
112 1 3 44.2315 26.0677 1.57949 0.00338378 0.00152426 0.003441
2200 8 2 44.3798 28.4218 6.30435 -0.00894607 -0.000422492 0.0202453
1188 5 4 47.4609 24.7369 2.83874 0.00617118 -0.00822685 0.0069811
1692 6 2 46.6329 25.0281 3.15848 -0.0252412 -0.00883394 0.0177994
2560 10 1 52.7844 24.2041 0.0965981 -0.00623064 0.000995648 -0.00707576
1996 8 1 56.1265 28.2611 3.65274 -0.00412339 2.52254e-05 -0.0054925
696 3 1 54.0392 25.3558 4.62406 0.00147529 0.000605123 0.00796082
544 2 2 52.6616 23.4452 2.16867 0.00418025 -0.00259994 0.0111059
2352 9 4 1.74578 34.3342 2.83433 0 0 0
1390 5 2 4.62593 33.9375 2.60851 0.0123028 -0.00415459 -0.0122634
2748 10 1 12.1593 31.291 4.16426 -0.000661078 0.00407161 6.97043e-05
2361 9 4 10.5353 33.8075 0.942493 -0.000682296 -0.00519619 -0.0045754
2372 9 4 14.6643 34.6027 5.83685 0.00238133 -0.00507532 -0.00526646
266 1 2 13.4519 32.4385 0.827212 -0.00792402 0.00713661 0.0119245
2092 8 4 18.0357 36.4607 7.48373 -0.00158211 0.00460786 -0.00113171
1352 5 2 16.706 30.3546 4.16961 0.011858 -0.010405 0.011373
1652 6 2 20.538 35.983 6.0864 -0.00625841 -0.0237452 0.0138414
2532 9 2 29.8769 31.7202 1.77469 0.00691157 -0.00593471 -0.0106177
2732 10 1 32.1753 34.5403 0.237488 0.00833133 0.00863852 -0.0023826
2313 9 1 31.3233 36.4622 3.11499 0.000917327 0.000762864 -0.0058512
1022 4 1 35.0704 32.2347 4.69151 0.00178536 -0.00568294 -0.00543659
1369 5 2 33.4355 35.7033 6.9111 -0.00196102 -0.0256171 0.00933044
375 2 1 32.9635 36.7372 0.776556 -0.0017646 0.0016005 0.00409462
1261 5 1 37.1881 34.2446 0.00481564 -0.00214235 -0.00527495 0.0103331
1769 7 1 37.9622 30.0404 4.72413 0.00594209 0.00472135 0.00774045
271 1 2 38.1454 34.2556 7.32223 0.00348456 0.00667463 -0.0129219
1127 4 2 40.6969 30.9927 5.70342 -0.00426645 -0.00785771 -0.00948703
1376 5 2 41.0224 35.3561 1.41167 -0.00347343 -0.0260899 -0.0156801
279 1 2 49.2261 34.8262 5.86579 0.00700483 0.0336585 0.00441111
2543 10 1 48.9792 31.2378 2.95567 -0.00986271 0.00269072 -0.00373493
1606 6 1 46.4571 32.5337 6.28711 -0.000527974 0.000157467 -0.00482076
382 2 1 47.6958 30.6811 2.03281 0.00449712 8.444e-05 0.00409513
2534 9 2 52.0452 34.9278 2.74942 -0.00833193 -0.0311217 0.0129278
670 3 1 52.5318 31.7853 2.73613 -0.00145408 0.000567315 0.00445565
262 1 2 56.6393 33.4751 5.0164 0.00788291 0.00541284 -0.0118666
387 2 4 53.1069 35.4206 1.26016 0.00675834 0.00288585 0.00357726
998 4 1 6.30719 37.932 5.91357 -0.00896432 -0.00119559 -0.00832297
2393 9 1 13.124 43.3113 2.52102 -0.00208079 0.00176293 -0.00776159
1634 6 2 7.66591 40.4853 5.44272 0.0331168 -0.000196276 -0.0280297
2338 9 4 19.0036 38.6882 3.81199 -0.000137364 0.000518464 -0.0029612
2377 9 1 17.6064 42.243 3.63596 0.00209137 -0.0017992 -0.00704562
1428 6 1 20.2594 42.1594 5.48459 -0.00777904 0.000154958 -0.00347216
2324 9 3 18.1291 41.4071 6.35493 -0.00193835 0.00289443 -0.00374043
1947 7 2 16.4258 38.5169 0.406115 -0.00245247 0.00609916 0.0110804
1567 6 1 28.5493 38.023 6.91832 -0.00198829 0.00488959 -0.00698307
2321 9 1 27.1464 41.0135 6.43801 0.000744974 0.0030898 -0.0037576
255 1 2 23.5521 44.3414 5.17546 0.0193492 -0.0128531 -0.0165506
2349 9 1 33.6626 40.5636 6.23747 0.00865066 -0.000576968 -0.00188781
1173 5 1 33.2636 42.1822 7.40785 0.000739439 -0.00432993 0.00896474
1581 6 4 33.433 40.4722 5.64655 -0.00101478 0.00616967 -0.00527098
459 2 1 35.0962 40.2249 5.3102 -0.000755516 0.00658115 -0.00952792
1016 4 4 36.0057 40.8889 5.33589 0.00366626 -0.000730824 -0.00543125
1018 4 1 33.2791 39.5667 6.88661 0.00182203 -0.00216893 -0.00477896
1748 7 1 31.7293 42.0899 0.933009 0.00252812 0.00496478 0.0051132
1189 5 4 34.7997 42.2441 0.686904 0.00171669 -0.00163237 0.00778756
1442 6 1 44.7179 42.9147 2.05455 0.00482435 0.0016615 -0.00503098
681 3 1 43.0858 43.7397 4.04963 -0.00415288 0.0074811 0.00491305
1012 4 1 42.0544 43.3612 5.35919 0.00633658 -0.000657925 -0.00641192
1411 6 3 44.02 38.9888 5.92646 -0.00123641 -0.0021985 -0.00399981
2498 9 2 41.8993 44.4787 1.14666 -0.0147855 0.0038839 0.0179959
185 1 1 40.2098 42.5798 0.450621 0.00470992 0.0101611 0.00838665
1159 5 1 45.4856 42.2373 4.75238 0.00334385 -0.00624507 0.00840575
820 3 2 51.633 43.3495 6.14792 0.0246476 -0.0165902 0.00782437
90 1 3 47.6566 37.9995 2.08253 0.00132745 0.00500258 0.00584421
2487 9 2 58.384 41.047 0.0127171 0 0 0
542 2 2 54.745 42.0396 2.6345 0.00492201 -0.0170458 -0.0379558
2531 9 2 57.9987 42.6625 1.07508 0 0 0
687 3 1 53.6544 41.5637 1.92657 0.00123578 0.0070719 0.00510863
2250 8 2 5.76582 45.0313 2.0598 -0.00267167 0.0104053 -0.00189688
2712 10 1 0.851169 45.1983 1.88268 0 0 0
2482 9 2 11.7151 50.3424 6.53484 -0.00584036 -0.00051746 -0.00765886
1007 4 1 14.6356 47.1656 4.96513 -0.00438057 0.00119622 -0.00742115
2374 9 4 15.7336 49.1117 2.91727 0.00136984 4.90978e-05 -0.00555549
257 1 2 20.8552 49.1427 1.89507 -0.00608833 0.0371591 -0.0169564
2754 10 2 22.8658 50.352 3.43247 0.00297394 0.0105668 -0.000171811
2332 9 1 23.3374 51.5785 5.37854 0.00154777 0.00662941 -0.00396498
1042 4 1 22.5114 46.2768 4.11465 -0.00755303 -1.6081e-05 -0.00682054
2786 10 2 25.5508 46.9799 3.5148 -0.000926875 -0.0118156 -0.0290017
2792 10 2 36.6114 46.8428 5.93821 0.00613215 -0.0126697 -0.00210512
1547 6 1 37.2562 46.4167 6.92118 -0.00088272 0.00484669 -0.00733273
2201 8 2 40.6842 47.4934 0.288362 0.0130669 0.00890735 -0.00704586
1615 6 4 39.6311 45.5968 3.14558 -0.00436797 0.00447433 -0.00460497
1044 4 1 37.7939 49.4659 4.46413 -0.00193283 0.00112278 -0.00690555
1531 6 1 44.3797 47.6567 6.45622 -0.0015733 0.00366307 -0.00706431
1389 5 2 38.9188 51.4699 2.21917 0.0265659 0.00190035 0.0102569
1247 5 1 42.2215 50.5885 0.639045 -0.003051 0.00157901 0.011342
1962 7 2 52.3953 48.2952 7.04345 -0.0321235 -0.0183059 0.0125242
9 1 1 48.6176 51.0768 2.84727 0.00516743 -0.00679046 0.00458051
2528 9 2 47.6692 46.8335 5.52862 -0.0109883 0.00240221 -0.0115214
83 1 4 49.481 49.31 4.0472 0.00256521 0.0101284 0.00915248
350 2 3 59.0934 45.5362 0.357337 0 0 0
525 2 2 59.6775 45.7685 0.295352 0 0 0
228 1 2 4.15143 53.0527 6.5274 0.0107622 -0.0283733 0.00851776
1958 7 2 2.00117 58.4317 3.71671 0 0 0
1624 6 3 0.235656 56.1033 7.26488 0 0 0
1084 4 2 3.70603 55.9094 0.0291013 0.03841 0.00537577 0.0105224
2191 8 1 11.9319 53.3069 0.707259 -0.000537249 0.00921077 -0.0025275
2156 8 4 9.78542 54.9054 2.50909 8.29699e-05 -0.00676865 -0.00444316
2144 8 4 13.1824 59.0192 7.07166 0.00202896 -0.00299472 -0.00417174
2718 10 1 20.8032 59.9624 3.94644 0.0050333 -0.00265146 -0.00173302
1677 6 2 19.702 59.418 1.63156 -0.00769001 0.0142756 -0.00814858
2488 9 2 21.2707 53.9085 6.25649 -0.00437893 -0.0193138 -0.0060254
2711 10 1 15.2305 55.6546 6.86993 0.00253261 -0.00289697 -0.00183443
250 1 2 25.1907 54.3418 5.00659 0.0188647 -0.0125877 0.00548224
2736 10 1 27.9832 57.6735 7.05875 0.00592767 -0.00672661 0.000535899
1395 5 2 28.7281 58.1721 7.04724 -0.00145757 -0.0198351 0.0162129
1122 4 2 26.3557 53.6656 4.38459 -0.00676051 0.00311623 0.016903
254 1 2 35.8926 54.2859 4.13606 0.0237214 0.01426 0.00516082
2 1 1 34.7805 56.4314 5.60969 0.000385009 -0.00590782 0.00434188
2243 8 2 30.1124 56.9167 7.11214 -0.0156818 -0.00490534 -0.00262354
2385 9 1 41.4696 58.9466 0.744004 0.0100238 0.00575143 -0.0086676
2305 9 1 42.5529 56.9704 0.615627 0.00437036 0.00828257 -0.00765495
1077 4 2 43.1885 52.7641 5.01284 0.00653899 -0.024262 -0.0118613
1317 5 1 38.4803 59.8502 3.85704 -0.00111229 0.00323766 -0.00943838
1328 5 3 38.7044 54.5707 6.69405 -0.00335823 6.1861e-05 -0.00873478
573 3 1 50.3935 53.9771 5.04263 -0.0023286 -0.00765675 0.00576705
58 1 1 47.0284 52.8374 1.62783 0.000882148 -0.00849224 -0.0126829
1674 6 2 49.1243 56.3888 7.19431 0.00557853 0.0115987 0.0165513
2788 10 2 0.477771 3.98095 13.9264 0 0 0
563 2 2 6.75305 3.52381 10.8235 0.0133764 0.0202511 0.00856341
2801 10 2 3.60282 6.06797 12.7065 -0.00299047 0.000538387 -0.00318939
1513 6 3 6.06546 1.25178 14.3235 0.00700139 0.00735351 -0.00705459
2717 10 1 7.51071 3.4788 14.8081 -0.000957717 -0.00126848 0.00206365
2719 10 1 14.7264 5.29834 11.3007 0.00187935 -0.000979062 0.000986268
2654 10 4 10.8418 3.47142 8.65211 -0.00531606 -0.00506943 0.000631644
2626 10 1 14.8986 1.69881 13.5558 -0.00515497 -0.00386367 -0.00235686
2478 9 2 11.5083 5.27557 11.3858 -0.0251779 0.00309623 -0.00402808
2214 8 2 11.6842 6.48257 13.1541 -0.00175112 -0.00403577 -0.00480196
1815 7 1 11.7081 4.62636 14.483 -0.00341957 -0.00633985 -0.00659439
1643 6 2 8.78864 1.75012 13.5838 -0.00698614 0.00994565 -0.0257477
1358 5 2 16.5915 5.99789 9.56126 -0.00755659 0.00355316 0.0117417
1096 4 2 16.2435 1.42358 8.74262 -0.0118338 0.010519 0.0152126
2702 10 1 15.2294 3.40202 7.64182 0.00301495 7.32091e-05 -0.00367487
619 3 1 21.2246 2.79292 7.60086 0.00931626 -0.00653483 -0.00920885
811 3 2 19.9368 7.2009 8.32372 -0.0146881 -0.0106052 -0.0157017
787 3 2 25.9578 3.46359 7.56539 0.0355019 -0.00369577 0.00671256
2147 8 1 25.1038 1.25754 9.86479 0.00681631 -0.00290378 -0.00215928
2639 10 1 26.8979 3.62594 13.8495 -0.000978434 -0.00457082 0.000666208
2064 8 3 24.2549 1.44985 8.73014 -0.00104005 -0.00760046 -0.00377835
53 1 1 28.469 5.15088 9.50245 -0.00736958 -0.00248965 -0.00994302
2047 8 1 28.9462 5.2935 9.1407 0.00356009 -0.0044486 -0.00616772
2294 9 4 27.7372 1.82285 12.5661 -0.00218191 0.00703354 -0.00400078
103 1 3 32.4824 6.53366 7.81337 -0.00314265 -0.00753334 0.00607855
2666 10 1 30.6562 0.584034 11.4471 0.0050345 -0.00551159 3.6854e-05
1290 5 4 34.6588 1.89328 8.7744 0.00183153 0.00531011 -0.00992384
2220 8 2 39.6906 0.0991826 11.5315 0.00487263 0.0400265 0.0203058
521 2 2 49.9796 3.57234 10.7059 -0.000176154 0.0121197 0.0120784
1932 7 2 48.6862 3.97722 9.50764 0.0104785 -0.00827511 -0.0145433
1381 5 2 56.965 4.27171 14.8949 -0.0211112 0.00723068 0.0174368
1098 4 2 58.4798 2.72832 7.99122 0 0 0
2594 10 1 53.4567 1.05699 14.3868 -0.00753933 -0.0031152 -0.00510169
377 2 1 6.30754 13.2694 10.1708 0.0112166 -0.00740264 0.00766991
2520 9 2 3.4221 11.5852 10.4801 0.017452 -0.0080451 0.0180176
2150 8 1 7.11956 9.56505 9.1866 0.000436223 -0.000159981 -0.00193056
2151 8 1 6.2031 8.00221 8.75617 -0.000449561 -0.000797916 -0.00189193
2177 8 1 5.54764 12.9547 9.21746 -0.00252294 -0.00400653 0.00138218
2778 10 2 5.18884 13.5502 7.88051 -0.0287109 0.00219326 -0.0060774
636 3 4 7.35029 13.3668 13.5565 0.00327531 -0.00506968 -0.00819101
2152 8 3 10.575 8.88548 10.8183 0.00114479 -0.00084461 -0.000680682
2074 8 1 10.6997 8.91247 9.51638 -0.00657412 -0.00558301 -0.00193665
2698 10 4 9.96841 9.57267 13.0962 -0.000653836 0.00347307 -0.00192592
2613 10 1 11.7403 12.4938 10.3907 -0.00435028 0.00129713 -0.00527651
2624 10 1 14.6824 11.6442 8.69722 -0.00488545 0.000408896 -0.00461871
2193 8 1 14.9637 13.8351 10.7504 0.000316295 -0.00674995 0.00188335
2555 10 4 17.1421 8.55391 9.48049 0.00253283 -0.00475404 -0.00154701
2618 10 1 18.5429 9.75299 10.7758 -0.00205403 0.000397596 -0.00378047
2579 10 1 16.5148 14.0134 12.9013 0.00389153 -0.000167847 -0.00536309
233 1 2 26.2358 10.355 8.69376 0.0171987 -0.0224052 0.0140223
1260 5 1 27.7926 9.56191 9.47351 -0.00617736 0.00918436 -0.009519
2163 8 1 24.5503 9.1221 8.65365 0.00581812 -0.00262316 -0.000428941
2544 10 4 22.763 8.14476 14.8146 0.00311881 -0.00731809 0.00108265
1901 7 1 23.1303 14.3752 10.3828 0.000277728 -0.00395391 -0.00527127
2046 8 4 27.7076 14.9562 8.67827 0.00324705 -0.00134272 -0.00748469
2136 8 4 27.7533 7.94728 13.9764 0.00772851 -0.00155709 -0.00328384
2614 10 1 30.3361 9.18993 9.65904 0.00347726 0.000584371 -0.00467038
2776 10 2 31.5292 9.14486 10.1204 0.00667729 0.000355145 -0.00564906
2671 10 1 37.1655 13.8155 9.17689 0.0080374 0.000505412 -0.00164684
2109 8 1 35.3557 9.69625 8.47004 0.00770549 -0.0030471 -0.00325598
2640 10 1 31.3081 12.2869 7.60816 0.00115085 -0.00176926 -0.00225034
2069 8 1 35.2998 8.59089 7.79822 0.00328714 -0.00536404 -0.00350631
1967 7 2 38.3148 9.13575 9.98636 -0.0161553 0.0159939 0.0174749
1046 4 3 44.8619 8.19659 10.9412 0.000236366 0.00793864 -0.00459793
2195 8 1 44.0846 13.111 11.081 0.0114558 -0.0072256 0.00187119
778 3 3 48.7771 13.999 7.51099 -0.000301964 -0.001142 0.00430919
2593 10 1 51.7107 7.78619 11.6056 -0.00854252 -0.000716725 -0.00657215
549 2 2 50.354 9.78805 11.7761 0.00488441 -0.00684558 -0.00672437
526 2 2 57.6423 10.2839 12.0644 0 0 0
1957 7 2 53.4884 7.70028 11.21 0.0167265 -0.00945349 0.0109908
2740 10 1 55.2893 11.4497 9.14477 -0.00679189 -0.00251931 0.00190951
2676 10 4 52.6653 10.3763 9.629 -0.0103663 -4.66664e-06 -0.0019964
336 2 1 59.3417 12.1997 10.0517 0 0 0
273 1 2 1.40676 16.8754 13.5764 0 0 0
2180 8 1 6.03511 17.724 10.4552 -0.00193996 -0.0020468 0.00227206
2577 10 4 1.74793 18.4327 12.2029 0 0 0
2723 10 1 6.76341 20.7099 10.72 -0.00168424 0.00477394 0.000749188
218 1 1 3.76397 20.5004 12.4114 0.011558 0.00345137 0.00680297
2743 10 4 11.7004 16.2553 12.1807 0.000139349 -0.000493465 0.00345146
2154 8 1 9.01392 18.8092 13.0846 0.000781968 0.00297167 0.000677426
2751 10 4 12.9329 19.972 12.1032 -0.00140684 -0.000961996 0.00251808
2006 8 1 13.0769 19.4617 8.69008 0.00311835 -0.00198213 -0.00530837
2820 10 2 12.8307 15.4033 9.00511 -0.00257572 -0.00436709 -0.000263155
2566 10 4 10.288 22.406 11.2458 0.000683181 0.000379612 -0.00385128
2409 9 1 9.01401 16.6167 12.0633 -0.00557879 -0.00644614 -0.0050695
242 1 2 12.8735 16.8738 11.2451 -0.0120902 -0.00222808 -0.0109796
2401 9 1 9.07267 20.7981 13.8595 -0.00432973 -0.00589595 -0.0032954
2766 10 2 11.6734 21.2929 8.40837 0.00160456 -0.000408047 0.0200201
2160 8 1 15.4961 17.9509 10.2353 0.00322525 0.00189915 0.000237737
2165 8 3 15.0516 17.3864 12.0394 0.00227423 0.000507351 0.00137095
2112 8 4 21.409 18.2992 7.82445 0.0016428 0.000487269 -0.00340862
1981 8 1 18.572 17.6176 14.1379 0.002908 -0.00445096 0.00138037
2061 8 1 20.8838 19.5808 9.61871 -0.00158967 0.000157919 -0.00367092
2329 9 1 16.2327 18.2878 10.883 -0.00184133 -0.00656408 -0.00173798
2620 10 4 15.5115 22.0721 13.3767 -0.00382101 0.00453845 -0.00369493
792 3 2 29.4868 19.4149 11.4084 -0.0106305 0.00407716 0.010897
2650 10 3 28.605 19.9634 12.6252 0.001654 0.00090816 0.00154608
2627 10 1 25.9842 18.8403 12.2006 -0.000568715 0.00283212 -0.00238297
2230 8 2 26.3303 15.1258 13.1589 -0.0205255 -0.0253257 0.000490343
1758 7 1 34.7983 16.0478 8.5691 0.00474253 -0.00350729 0.00869244
2638 10 1 30.9627 19.6061 12.7436 0.000860698 0.00152126 -0.000581762
2077 8 3 35.0451 21.0411 11.2948 0.00322964 -0.000713556 -0.000324893
2081 8 1 33.3151 20.4208 11.7221 0.00299765 -0.00148768 0.000549244
1529 6 1 35.0231 22.26 12.2756 -0.00579995 -0.00651639 -0.00502297
1693 7 3 32.753 15.395 13.7906 0.0016076 -0.00358599 -0.00483537
821 3 2 32.3302 16.3236 14.0876 0.0161353 -0.0258234 -0.0120946
2793 10 2 36.9152 18.453 14.1392 0.00804209 0.00105399 -0.0232835
1930 7 2 31.7599 20.0082 7.83896 0.00338877 -0.0267539 0.032556
1566 6 3 39.391 16.6284 11.7787 0.0024984 -0.00417504 -0.00490251
165 1 1 38.436 15.8286 12.6456 0.00266401 -0.000656143 -0.00691218
516 2 2 51.0966 18.1501 11.1932 -0.0251969 0.022256 0.0125189
565 3 3 51.1364 16.1319 14.2278 -0.00157465 0.000363569 0.00835472
416 2 3 47.5308 18.8053 10.766 0.00321474 -0.00266026 -0.0118372
945 4 1 46.9741 20.034 13.4845 0.000893651 -0.00545678 -0.00821498
524 2 2 55.5114 21.6169 13.2297 0.00471215 -0.00462924 0.0127727
2703 10 1 53.5797 16.6201 9.57585 -0.00586371 0.00607604 -0.00227526
1931 7 2 53.6496 20.8829 12.6538 0.0118678 -0.0249008 0.0092159
1574 6 1 53.5913 17.5213 14.8756 0.0078657 -0.00321789 -0.00240296
611 3 1 59.8715 16.6897 14.7952 0 0 0
561 2 2 7.04663 23.5964 12.1104 0.0127767 0.00429296 0.00976055
2506 9 2 7.47655 23.3756 13.4014 -0.0246698 -0.00855736 0.0234106
504 2 2 1.28889 28.0648 9.24249 0 0 0
2551 10 1 6.73012 27.1268 9.09593 -0.00183995 0.00150191 -0.00234923
2035 8 4 6.93225 25.4864 12.6154 -0.0020591 0.00377058 -0.00611224
1626 6 2 0.677955 23.4086 12.9437 0 0 0
2747 10 1 8.17429 22.8938 10.3518 -0.00263068 0.000773522 0.00213911
2325 9 1 14.5017 27.6527 11.1808 -0.0033677 -0.00282772 -0.0013137
1446 6 1 12.0541 28.5585 13.8839 -0.00730675 -0.004041 -0.000677652
2502 9 2 19.4846 28.7617 13.7762 0.00166664 -0.00409733 0.0257569
2169 8 1 19.3889 22.5119 13.4884 0.00427194 0.00171915 0.00240695
1989 8 3 18.4945 29.9912 8.28781 0.00391702 0.000742071 -0.00244288
2546 10 4 17.2825 28.5552 8.96251 0.00108498 0.00233327 -0.000214995
2085 8 1 17.7837 29.1995 12.0006 -0.00245614 0.0024326 0.00111663
2073 8 1 19.0703 26.2483 11.8303 -0.00347707 0.00181333 -0.000833872
2570 10 1 19.2388 25.7505 12.8304 0.0049735 0.00345301 -0.00342544
1700 7 4 17.523 28.0929 12.2198 -0.00358279 0.00131076 -0.00557088
125 1 3 24.0617 29.9412 8.82426 -0.00413414 0.0044653 0.00842891
835 3 2 22.6699 25.093 10.9429 -0.00850844 0.00182521 0.0112952
2079 8 4 26.8538 23.6062 13.4834 0.000368738 -0.000375923 8.89492e-05
2322 9 1 25.4064 27.6648 7.6419 0.000434179 -0.00269128 -0.00404724
1565 6 1 25.38 29.0129 10.4219 -0.00323919 0.000299941 -0.00574326
1562 6 1 25.837 25.7246 11.8374 -0.00376841 -0.00151215 -0.00561985
1580 6 4 27.5281 24.5002 11.5507 -0.00377117 0.000883275 -0.00430412
378 2 4 27.4796 25.8615 12.1093 -0.00521137 -0.00218938 0.00864934
1433 6 1 26.6012 29.2993 11.591 -0.00414951 -0.00471147 -0.00096159
793 3 2 23.5824 24.2313 14.1164 0.00997097 0.00571412 -0.0100862
1656 6 2 32.61 25.967 12.4438 -0.00310001 0.0176996 0.0146715
1068 4 2 37.0661 29.9976 13.0187 -0.00602115 0.016369 0.0167279
2656 10 4 30.1767 26.2716 7.98118 0.00248547 0.00289343 -0.00103673
2312 9 1 34.2412 25.9677 8.75967 0.00189688 -0.0034229 -0.00445933
1440 6 4 30.6035 29.717 14.2426 -0.00200461 -0.0035072 4.10515e-05
1722 7 4 34.4894 25.0645 10.9282 0.00276494 -0.0032762 -0.00979351
709 3 1 33.9136 24.4591 14.7487 -0.00666417 0.000270826 -0.00881213
1584 6 1 44.1409 22.995 8.87447 0.00223275 -0.000305986 -0.00389461
1578 6 1 41.4496 25.6486 14.0096 0.00224223 0.000521045 -0.00234257
763 3 1 47.25 23.2825 10.1302 0.000840781 0.002109 0.00803729
569 3 1 45.1547 25.0203 8.85407 -0.00417133 0.00443173 0.00691403
653 3 1 51.7805 24.1052 12.4914 -0.00261461 -0.00294591 0.011759
1987 8 1 46.9104 25.389 11.1894 -0.00892145 -0.00159362 -0.00118824
1618 6 1 48.0953 25.3909 12.3551 -0.0013943 -0.00474845 -0.000976361
1558 6 4 52.2912 25.6447 14.8555 0.00632366 -0.00251051 -0.00503421
508 2 2 59.6874 28.5706 9.49677 0 0 0
2232 8 2 58.4871 24.0095 8.20729 0 0 0
1997 8 1 58.8592 24.7872 9.28334 0 0 0
2559 10 1 53.8547 29.1893 8.42967 -0.00626454 0.00382572 -0.00358853
1435 6 1 56.3715 28.0699 11.0187 0.00872378 -0.00545446 -0.0012157
841 3 2 55.9563 23.2528 8.08795 0.0265353 0.0258335 -0.0179556
2583 10 1 56.3431 24.2066 12.3252 -0.00494035 0.00429943 -0.00605952
2797 10 2 59.2695 24.4339 10.1845 0 0 0
1069 4 2 4.51342 36.5663 13.916 0.00795177 -0.00668629 0.0160608
1597 6 1 7.3884 31.8287 12.8874 0.00910376 0.00107149 -0.00230146
558 2 2 0.125292 35.4179 12.5689 0 0 0
263 1 2 11.414 34.8313 13.2569 -0.0107556 0.00749052 0.016554
2619 10 3 12.3689 34.7167 10.7707 -0.00491046 0.0100315 -0.00393531
2174 8 3 11.4784 32.6048 12.4209 0.000275374 0.00463432 0.00253156
2114 8 4 14.0916 33.1441 8.82441 0.000413831 0.00576685 -0.00290784
1607 6 1 12.629 35.3522 8.59582 0.009872 0.000903263 -0.00284847
1898 7 1 13.2602 34.5177 9.84505 -0.00286471 0.00337908 -0.00568758
2186 8 1 16.1365 31.6467 13.4163 0.0017854 0.00224588 0.00415251
2540 10 1 18.092 32.9507 13.35 0.000823981 0.00307749 0.00147839
1706 7 1 15.2632 30.386 11.3033 -0.00508234 0.000665616 -0.00740948
1683 6 2 17.3368 37.1306 14.2923 0.0122635 0.00227506 -0.0483579
2648 10 1 25.3164 31.5816 13.9481 -0.00035065 0.00622383 0.00186045
2380 9 1 24.5401 31.1572 12.2933 0.00398965 -0.00615392 -0.00346707
1605 6 1 29.3572 31.456 11.4584 -0.00714033 -0.0001924 -0.00181344
1577 6 1 24.4736 30.0594 14.9852 -0.00473896 0.00280097 -0.00262033
1471 6 4 27.9066 31.2532 14.5493 -0.000318552 -0.00111711 -0.00429267
396 2 1 36.0468 34.8921 11.2699 0.000944307 0.00431205 0.00879634
2637 10 1 37.2571 31.3237 13.7405 0.00314843 0.00663709 8.46125e-05
2383 9 4 32.5359 34.6392 9.3996 0.00673036 -0.0048027 -0.00441656
1430 6 1 31.6045 32.7278 14.869 -0.00291341 -0.00384049 0.0006804
1034 4 1 36.0716 31.777 10.6949 -0.000476972 -0.00604881 -0.00335325
1911 7 1 37.4784 34.691 12.3648 0.00375734 0.00494558 -0.00417328
1552 6 1 34.4243 36.6282 11.96 -0.0014179 0.00112166 -0.0045688
1601 6 3 32.9714 35.1564 13.3192 -0.00530264 0.00191776 -0.00172471
1953 7 2 31.9843 36.6456 13.4107 0.00490651 -0.0208382 -0.0122969
2397 9 1 42.7726 34.9961 8.50838 0.00971465 -0.00102755 -0.00520545
2307 9 1 40.6646 34.1094 8.49134 0.00380825 -0.00069985 -0.00499826
1528 6 4 41.0587 34.9728 9.84795 -0.00311611 -0.00319448 -0.00656762
107 1 1 48.0047 34.8239 8.68535 0.00365988 0.00431718 0.00583974
1630 6 1 45.9424 32.6808 7.95969 -0.00149825 -0.00549609 -0.00394893
2646 10 1 46.945 34.9729 10.6378 -0.0161264 0.00772395 0.000210325
2127 8 1 48.5622 31.5846 13.8195 -0.0090299 0.00772464 -0.00369421
1541 6 1 49.207 32.1107 14.5632 0.00260719 -0.00186933 -0.00334071
1510 6 1 48.6238 30.7364 11.5552 0.000860721 -0.00502422 -0.00845673
338 2 1 49.2241 35.8293 14.3765 -0.00138436 0.00320611 -0.00906299
1373 5 2 48.5889 35.6635 13.0547 -0.0225924 -0.025499 -0.0101625
1532 6 1 53.2405 33.6126 12.3998 0.002281 -0.00240578 -0.00460088
65 1 1 54.7456 37.3383 11.797 0.00320225 0.00766014 -0.009364
815 3 2 5.14503 44.9161 9.26915 0.00357481 0.00685884 0.00618566
2813 10 2 7.4957 40.9879 9.31668 -0.0250633 0.00996716 0.00150387
2360 9 4 3.46332 41.3375 13.5972 -0.00203627 -0.00111619 0.000435287
2344 9 1 3.62819 37.5982 13.9038 -0.00473833 -0.000517115 0.00138073
2701 10 1 0.911695 43.7344 11.8842 0 0 0
2700 10 4 4.09625 43.7365 10.6024 -0.0020383 -0.00834938 -0.00333702
2260 9 1 2.50243 44.7196 14.1748 0 0 0
1401 5 2 10.7329 42.0354 11.1132 -0.01283 -0.00530543 0.0176145
2063 8 1 9.03019 44.6265 13.4887 -0.00682913 0.0099646 -0.0022653
556 2 2 9.28458 37.9093 12.4521 -0.00932417 0.00686611 -0.0100416
805 3 2 11.1011 40.5574 14.457 0.00454203 -0.0189331 -0.00869558
2334 9 1 20.8795 44.1713 13.6933 0.000770181 0.00338654 -0.000197096
2479 9 2 19.2157 44.7852 11.6353 -0.0253953 -0.0278299 -0.00451348
1557 6 3 19.3574 41.3314 13.8049 -0.00649826 0.00378735 -0.00459924
1394 5 2 21.2695 40.9573 11.5238 -0.0033762 -0.0036955 -0.0079237
1324 5 1 21.3598 41.2658 14.1756 -0.0091661 -0.00438886 -0.00528617
1080 4 2 20.1158 42.261 11.4845 -0.00318209 -0.0270376 -0.010559
1001 4 1 29.0324 44.7708 11.6322 0.000955741 0.00106992 -0.00583631
2287 9 1 29.3935 43.189 12.2662 -0.000737811 -0.001126 -0.00471551
1011 4 1 25.8242 43.889 14.0438 -6.75314e-05 5.32053e-05 -0.00271408
1006 4 4 23.8588 38.7046 14.901 -0.00061729 -0.000826172 -0.00359442
2273 9 4 25.0677 43.1484 14.6407 0.0012007 -0.00265623 -0.0045933
1216 5 1 23.0599 44.4305 12.6555 -0.00856685 0.00285781 -0.0113602
1623 6 4 33.784 42.4259 12.1118 -0.00703521 0.000447976 -0.00205726
1053 4 1 33.214 44.4262 8.7071 -0.0054308 -0.00153233 -0.00653356
118 1 4 44.5211 39.168 9.83882 0.00287643 0.00744562 0.00667913
540 2 2 37.8952 42.5018 9.1255 0.000361693 0.00644472 0.0113246
1439 6 1 42.3286 44.2775 13.3635 0.00348183 0.0018258 -0.000369005
1030 4 4 42.5446 40.3309 9.88701 0.00365705 -0.00269202 -0.00281119
1423 6 1 41.636 44.3053 8.35076 5.48039e-05 0.000316536 -0.0023769
1619 6 1 42.1625 40.4216 8.3219 -0.0036126 0.000500248 -0.00318364
2810 10 2 42.6414 44.9789 8.76105 -0.010119 0.0145072 0.0249896
1412 6 1 48.4553 42.9523 9.16343 2.73085e-05 -0.000814284 -0.00287983
1660 6 2 50.9721 43.7319 10.9305 0.00068922 0.00134635 -0.00811941
1920 7 2 49.904 43.6285 8.10142 -0.0165108 0.00440021 -0.00984783
958 4 3 50.3109 39.0139 12.4013 0.00108477 -8.402e-05 -0.0070127
2234 8 2 55.6286 38.1784 14.3069 -0.00659377 -0.015653 0.022344
1590 6 1 57.7917 39.5331 12.7218 0 0 0
2553 10 3 59.7062 43.8516 11.0836 0 0 0
1429 6 1 56.4999 38.8881 11.3687 0.00693915 -0.000779962 -0.00147491
1621 6 1 54.9666 41.5429 10.5248 0.00130704 0.000435168 -0.00234286
2221 8 2 5.11785 46.104 9.49707 -0.00932566 0.0105604 -0.00196557
1523 6 1 4.26082 47.8956 10.2914 0.00544473 0.00311424 -0.00646903
959 4 1 1.70151 46.9187 7.79658 0 0 0
2341 9 1 7.79952 47.9939 14.8179 -0.00324139 0.00375234 0.000643948
1448 6 4 8.38657 50.71 12.9179 -0.00837737 0.00352602 -0.00114886
2402 9 1 10.606 50.5033 10.8955 -0.00425282 0.00560252 -0.00504381
2168 8 1 8.07354 50.8435 11.0576 -0.000651384 -0.0105818 0.00127983
2694 10 3 8.30515 51.4298 12.6095 -0.000957541 -0.00457328 -0.00244978
1554 6 1 12.9926 47.1976 13.7697 -0.00965258 0.00559905 -0.00421853
1441 6 1 16.3046 50.9183 9.78972 -0.00631094 0.00373131 -0.00191331
2695 10 1 17.479 49.6542 12.4947 0.00273279 -0.00482072 -0.00220653
2722 10 4 21.0837 48.7666 12.9709 0.00557146 -0.00698294 0.00210238
898 4 4 20.6332 49.1951 10.4589 -0.00190191 -3.15466e-06 -0.00951765
1447 6 3 24.5183 47.7406 12.5649 -0.0019491 0.00326346 -0.00135326
2258 9 1 25.8795 52.0905 9.858 0.0033862 -0.00131499 -0.005164
2196 8 2 27.5816 51.8645 10.7867 0.00457744 0.0321414 -0.0219417
918 4 4 29.2182 45.4959 12.8728 -0.000177134 0.00288515 -0.00980688
1956 7 2 28.8638 47.6134 11.2689 -0.0183785 0.00774936 -0.013038
219 1 1 35.8715 51.8512 9.88471 0.00142419 -0.00799712 0.00533428
2292 9 1 37.3223 45.5128 10.1557 0.00233132 0.0011751 -0.00593051
1039 4 4 34.418 50.0223 14.1021 -0.00184399 0.000718536 -0.00166836
1109 4 2 34.819 47.5977 8.57917 0.0275328 -0.0223441 -0.00767553
216 1 2 36.5979 47.4088 11.6214 0.0273348 -0.0103281 0.00641855
2818 10 2 37.3851 50.7495 7.93991 0.00792403 -0.013829 -0.00129163
2708 10 4 36.2137 51.694 12.5715 0.0109903 -0.00350239 -0.000251411
837 3 2 44.9242 46.2264 7.54422 0.000631299 -0.0120426 0.00794609
1421 6 1 44.2426 48.6883 9.69707 0.000562632 0.00204051 -0.00196797
2212 8 2 50.0238 51.7247 12.5418 -0.0095721 -0.0100649 0.0184799
2246 8 2 50.8828 49.7666 8.02483 -0.00628168 0.0147095 -0.000390068
965 4 1 57.5458 51.8668 11.5276 0 0 0
2705 10 1 4.89888 54.0698 9.15012 -0.00129605 -0.00289928 -0.00189635
1311 5 1 7.38628 54.6762 11.5521 0.0119197 0.00109769 -0.00563197
2686 10 4 12.6269 59.9606 8.93104 -0.00158722 -0.00249855 -0.00368278
2477 9 1 14.6405 58.9814 12.1623 -0.000253398 0.000820547 -0.00386388
2687 10 4 14.7526 58.7736 14.2809 0.00088945 -0.00378977 -0.00158203
2682 10 1 21.6218 58.7953 7.80023 0.00280794 -0.00404068 -0.00382391
2350 9 4 17.1398 53.3572 8.58533 0.00211913 0.00546968 -0.00103827
276 1 2 21.7563 53.3395 9.42088 -0.0024635 -0.009537 -0.0150048
529 2 2 29.1205 59.7291 9.11005 -0.00246579 -0.0134288 0.00753682
1171 5 1 29.9947 57.9947 13.9733 -0.000340519 0.0015527 0.0118545
1703 7 1 23.4976 55.6066 13.9788 -0.00246978 0.0111702 -0.00595207
2280 9 3 28.2229 56.0135 14.9656 -1.16532e-05 0.0034222 -0.00421656
877 4 1 24.9775 58.6274 13.519 -0.0031498 0.00158497 -0.00881642
1770 7 1 35.9461 58.1662 11.4202 0.00562805 -0.00818513 0.0106201
1973 7 2 33.6776 56.2152 9.40113 0.00240385 -0.0104955 -0.00496315
1534 6 1 31.7656 53.3138 8.00566 -0.00580977 0.00565313 -0.00620813
1023 4 1 31.8199 53.2621 13.5461 0.00013036 0.00315803 -0.00195558
1015 4 3 36.6196 55.7358 12.0888 0.00367225 0.0043431 -0.0029641
1282 5 1 35.8726 54.5719 14.6632 0.00160545 0.00381838 -0.0073979
1936 7 2 40.2404 59.285 9.56859 0.00672856 -0.00596038 0.0101146
2111 8 1 40.568 58.1531 14.8237 0.0100628 -0.00745516 -0.0011457
1047 4 1 40.1518 52.9261 13.0392 -0.00182449 0.00201042 -0.00423911
872 4 1 43.8637 52.5987 12.8824 0.00379189 -0.000631735 -0.00780063
1240 5 3 44.3026 57.3716 13.0264 -0.00320214 0.00498582 -0.00849982
800 3 2 51.8187 58.6296 12.0415 0.0227671 0.0164366 0.016555
1690 6 2 46.0133 59.5463 12.3277 -0.000615884 0.00535413 0.0217403
2089 8 1 57.1728 59.7158 10.0458 0 0 0
1627 6 1 57.7021 53.0184 11.7168 0 0 0
2721 10 1 59.132 55.4719 12.4388 0 0 0
2140 8 1 58.5751 53.005 11.289 0 0 0
2709 10 4 6.90641 6.11073 21.7643 0.000192166 0.000765092 0.00296373
2596 10 1 4.86263 4.65704 15.9783 -0.00332655 -0.00134398 -0.00419709
2469 9 4 5.81487 5.46995 20.0748 -0.00303645 0.00467158 -0.00194329
50 1 4 1.64431 5.18743 18.2259 0 0 0
2124 8 1 0.943841 7.35431 20.4733 0 0 0
864 4 1 3.35992 0.304411 16.7283 -0.0144776 0.00266216 -0.00612347
1049 4 1 2.69652 2.70796 21.9584 0 0 0
2252 8 2 0.123491 1.86645 15.2008 0 0 0
2696 10 1 9.79049 0.948025 16.2018 0.000118996 -0.00100519 -0.00092808
1944 7 2 12.5047 5.21008 16.5442 -0.00309013 -0.00361397 -0.00590474
1009 4 1 8.49055 5.37928 17.6915 -0.00681258 0.00908211 -0.0015606
2526 9 2 10.6698 2.54185 17.5681 -0.0270885 -0.0136161 -0.00669356
2237 8 2 12.9619 5.61234 17.4768 0.0250443 0.0212685 -0.00252127
2277 9 1 9.4416 2.55021 19.5746 -0.00655336 0.00589409 -0.00227817
1363 5 2 9.23093 0.433171 19.0432 0.0150804 0.00500287 -0.0109715
1094 4 2 18.9793 3.27276 18.1501 0.0140989 -0.0131017 0.0167428
2184 8 1 17.1439 7.13822 16.7679 0.00223355 -0.00711191 0.00517037
2118 8 1 18.5767 1.78563 18.1076 0.00202947 -0.00568215 -0.000556178
2643 10 4 18.6355 0.0429303 19.1861 -0.00364741 -0.00708363 0.00228884
2101 8 4 15.5046 1.2984 20.745 -0.000732147 -0.00866784 0.00330602
2746 10 1 18.262 6.60594 20.237 0.00214839 -0.00539842 0.0066304
2093 8 1 19.1641 5.77265 19.0873 -0.000126376 -0.00623614 0.00418211
2211 8 2 16.2753 7.05124 15.5248 8.29096e-05 -0.00397791 -0.00583006
1459 6 1 20.0149 4.41851 21.2788 -0.00255604 0.0106802 -0.00057486
1295 5 1 20.5722 1.44723 15.6456 -0.0037147 0.00528969 -0.00473295
1688 6 2 21.4397 0.202095 20.6445 -0.0122557 0.00935604 0.00267821
295 2 1 16.9213 4.12899 22.3914 -0.0102691 -0.0038656 -0.00899984
258 1 2 23.9807 0.144863 19.1756 0.0195707 -0.00808645 0.0142811
2476 9 1 22.5565 4.44484 22.3803 0.0025846 0.00328194 0.000584537
2601 10 1 28.7627 4.51698 17.5957 0.0047743 -0.00120001 -0.00372613
1300 5 1 29.441 5.67657 21.4217 -0.000857219 0.00635503 -0.00205932
2065 8 1 29.1711 6.88442 20.1866 0.000661239 -0.00520823 0.00122342
2607 10 1 26.8193 7.36081 19.5777 0.0025469 -0.000434075 -0.00201451
2396 9 4 22.98 3.88176 18.2899 0.00153799 0.0089163 -0.00224964
2045 8 1 33.356 5.61074 22.1538 0.005144 -0.00471291 -0.00131367
1334 5 1 36.1933 0.730096 21.5779 -0.00514627 0.00209764 -0.00289326
1106 4 2 31.3621 1.74634 19.056 -0.000775162 0.00682414 -0.0276968
2657 10 1 39.6844 2.71834 16.3 0.00734938 -0.00534626 0.0032852
2483 9 2 38.3208 6.93924 22.4144 0.00505672 0.0080757 0.0229162
1545 6 1 42.008 0.695059 21.0588 0.000515615 0.0103376 -0.00173129
1320 5 4 37.7384 3.6597 21.2188 -0.00159304 0.00503068 -0.00287889
506 2 2 48.7676 6.24348 21.6304 0.00410544 0.020465 0.0150854
720 3 3 49.175 2.03445 16.4369 0.00104639 -0.00779422 -0.00625645
806 3 2 46.0909 1.1825 17.2116 -0.00345925 -0.0108114 -0.00780454
1959 7 2 45.6346 0.388121 15.7249 -0.0102002 -0.0122572 -0.00943524
608 3 1 51.2003 6.24757 17.3282 -0.00300426 -0.00291697 -0.00644194
732 3 1 47.8597 0.948273 20.8421 0.00230588 -0.00711669 -0.00533436
2725 10 1 59.0802 0.987784 15.5295 0 0 0
610 3 3 58.764 7.25621 16.8172 0 0 0
317 2 1 53.8871 0.181303 20.9557 0.000514036 -0.00699268 -0.00743052
1086 4 2 53.2625 0.652415 21.8361 -0.0143666 0.00803777 -0.00466994
2750 10 1 3.15971 11.9975 15.5762 -0.00434531 -0.00414658 0.0048509
214 1 3 2.38546 13.2716 15.4246 0 0 0
2499 9 2 6.27285 11.5688 21.5515 -0.00392286 -0.0107965 0.026911
2175 8 1 5.65708 11.1501 20.3981 -0.00244397 -0.00427675 0.00554126
2121 8 3 0.453045 13.706 22.0152 0 0 0
2082 8 1 1.27319 12.9536 16.9868 0 0 0
2769 10 2 7.46402 9.84636 17.6048 0.00067201 0.0222105 -0.00332287
2032 8 1 2.71163 10.7487 21.0626 0 0 0
334 2 4 0.247983 14.6843 22.3362 0 0 0
2123 8 4 11.2965 10.0773 20.4517 -8.1796e-05 -0.00213989 -4.89204e-05
2672 10 3 11.9768 13.1519 22.0061 -0.00186929 0.000601544 0.00306683
2116 8 1 8.31717 12.7548 15.4136 -0.00192393 -0.00167527 -0.00124817
2571 10 1 7.65351 14.1443 20.9704 0.000161805 -0.00163109 -0.00102344
722 3 1 13.8024 13.6403 18.4496 0.0110262 -0.00262787 -0.00552857
1992 8 1 8.5798 14.2482 20.379 0.000236719 -0.00538512 0.00192279
1694 7 1 9.15075 14.216 21.2032 -0.0078021 -0.00361001 -0.00150873
598 3 1 14.263 8.24367 20.672 0.00734998 -0.000952132 -0.00670281
2731 10 4 21.627 9.80585 18.2698 0.00502482 -0.000585661 0.00518112
2095 8 1 19.4827 9.94504 17.5878 0.00041187 -0.00462718 0.00320232
2172 8 1 20.0307 11.5841 20.6418 0.00345269 -0.00288957 0.00546111
2545 10 1 18.5619 12.6868 17.4572 0.00201995 -0.00427489 0.00238409
810 3 2 26.9313 12.9487 22.0911 0.0107717 0.0161755 0.0159488
1684 6 2 29.5279 7.97739 21.1196 0.0167224 0.0144798 0.0247054
2104 8 1 28.1192 9.94546 15.4851 0.00448529 -0.00358262 0.00116482
2565 10 1 24.9453 12.4138 18.4548 0.00694531 -0.00280728 -0.00122208
2008 8 1 23.3378 11.053 15.8342 0.00718912 -0.00546762 -0.00299711
2633 10 1 29.5461 13.9259 17.1636 0.000370448 -0.000222452 0.000401859
867 4 1 26.7642 13.4303 16.508 -0.00417872 0.0081741 -0.0062196
173 1 1 22.7344 13.5117 18.6462 -0.00248185 -0.00189331 -0.00567352
1820 7 1 28.4168 14.2482 22.0656 0.00303993 -0.00309793 -0.00433137
2649 10 1 30.2889 13.8897 15.9015 0.00178517 -0.00139332 0.00270182
2229 8 2 35.8212 10.2842 21.9316 -0.0157179 -0.00459354 0.00356345
465 2 1 36.6032 14.3075 15.8448 0.000606097 -0.0029078 -0.00620647
1082 4 2 34.955 9.96675 20.163 -0.0200048 0.0094187 -0.0054136
1679 6 2 44.6892 9.8572 19.528 0.0254405 0.0180969 0.0232468
1024 4 3 43.5511 8.66253 18.4982 0.00425846 0.00922861 -5.47359e-05
2055 8 3 41.7154 9.12724 20.4863 0.00726457 -0.0035571 -0.000649891
858 4 1 38.2119 14.7518 17.9591 -0.00184206 0.00894752 -0.00521438
54 1 1 39.6794 12.2399 19.5047 -0.00185503 0.000251551 -0.00543533
796 3 2 40.639 7.59877 18.1449 -0.0073904 -0.00205889 -0.00689164
807 3 2 40.9988 10.9448 15.6371 0.0419239 -0.00739166 0.0376856
2253 8 2 51.7326 9.76663 18.249 0.0157782 -0.00806695 0.00460559
716 3 1 46.9153 11.2168 20.6254 -0.0006095 -0.00491848 -0.00558782
703 3 1 50.4733 10.903 20.1436 -0.000165483 -0.00444601 -0.00813094
2288 9 1 53.2478 13.1193 20.7508 0.00933831 0.0115365 -0.00207726
1123 4 2 58.0877 8.14609 21.012 0 0 0
277 1 2 56.8991 12.6822 21.5709 -0.0132739 -0.000928312 0.0121436
2040 8 1 56.1961 13.1579 16.152 -0.00795117 -0.00137882 -0.00403559
2667 10 1 54.2209 10.7815 16.416 -0.00916442 -0.00160061 0.0016416
2015 8 1 58.5482 10.0214 18.4905 0 0 0
2133 8 1 7.20718 15.2663 16.7457 -0.00066393 0.00267451 -0.00178692
2059 8 1 5.29563 16.597 18.5882 -0.00749535 -0.00080438 -0.000468722
2060 8 1 5.56311 16.2558 21.8906 -0.00806435 -0.00111087 0.000175036
2741 10 1 7.54429 19.7687 16.1362 -0.00254828 0.000395485 0.00427649
2170 8 1 12.1584 20.813 16.4668 0.000443766 0.001286 0.00354991
2135 8 1 11.8239 15.8998 19.3061 0.00150517 0.0024783 -0.000809972
2100 8 4 10.9217 21.3013 17.0744 -0.00260934 0.000760915 0.00296734
2128 8 1 14.2827 17.1411 19.6923 0.000803487 0.00251404 -0.000709483
2674 10 1 12.2314 17.3752 21.0526 -0.00127904 0.0023157 0.00244984
2678 10 4 14.2598 19.92 18.3239 -7.8099e-05 0.00303642 0.00147917
2053 8 1 8.67349 20.8706 21.0532 -0.005863 0.000927855 -0.000915537
2007 8 1 12.8309 21.3953 15.9282 0.00285036 -0.00183628 -0.0031435
187 1 1 11.6717 19.4824 16.5406 -0.00639374 0.00110254 -0.00960537
2617 10 1 13.5658 18.4293 17.3741 -0.00433609 0.00341053 -0.00181835
172 1 1 9.53282 22.308 21.4452 -0.00774127 0.0020912 -0.00423671
2730 10 4 20.2916 16.0624 17.4966 0.00312625 0.00189377 0.00366144
2665 10 4 20.7437 16.1318 15.7204 0.000651077 -0.000330093 0.00143335
2604 10 1 17.4445 17.7038 21.0388 0.00020258 0.00393593 -0.00123967
2727 10 1 20.2997 22.1624 20.8491 0.00352789 0.00448737 0.00527165
2098 8 1 19.1133 17.1451 17.4088 0.000633323 -0.00204918 0.00238394
2062 8 1 16.8756 18.6545 17.0564 -0.00386655 -0.000389419 -0.00137024
1893 7 1 17.3766 16.2641 19.9684 -0.00111856 -0.00371956 -0.00249504
1696 7 1 16.4447 15.7403 19.5317 -0.00449812 -0.00372789 -0.00274453
1579 6 3 20.1289 22.0785 20.7691 -0.00666446 -0.000562993 0.000175252
1102 4 2 23.3171 19.858 15.8114 -0.00702596 0.0156088 -0.00443065
2051 8 1 23.0651 21.0155 16.3885 0.000311234 0.00124541 -0.00303099
2521 9 2 25.5901 15.1894 18.4613 0.00240244 -0.00581943 -0.0043671
287 2 1 29.3205 15.7175 21.2144 -0.00407541 0.000756208 -0.0102962
838 3 2 29.3689 20.5779 20.0874 -0.00597483 1.95701e-05 -0.0111274
914 4 3 24.7237 19.2587 21.4425 -0.00181893 -0.0076513 -0.00546658
1747 7 1 36.6531 18.2972 15.4194 0.00404604 -0.00427113 0.0107529
1945 7 2 30.9764 21.5825 18.1003 0.00466938 -0.0226474 0.0194301
2075 8 1 34.5551 15.4178 17.7543 0.00275606 -0.00252528 0.00208771
2078 8 4 31.3364 16.0838 20.9229 0.00130535 -0.00189089 0.00365877
1698 7 4 34.8528 19.1247 19.8036 0.00152994 -0.00214731 -0.00253657
1993 8 1 34.0708 21.9167 17.4586 0.0103031 -0.00183253 0.000502235
1533 6 1 32.9993 20.6666 16.7062 -0.00580067 -0.00669976 -0.0028555
2042 8 3 31.748 18.3993 22.3031 0.00528321 0.000716525 -0.00156838
1772 7 1 35.8037 17.594 17.7184 0.00571787 -2.75998e-05 -0.0104946
474 2 4 31.6759 16.4916 22.0221 -0.00126686 -0.00197337 -0.00575437
2120 8 1 37.79 17.1623 17.8874 0.0100188 0.000752132 -0.00100625
1909 7 1 37.8991 16.427 17.3986 0.00392245 -0.00278879 -0.00251937
154 1 1 37.7456 19.2177 15.3978 0.00039544 8.94674e-05 -0.0069541
1538 6 1 40.4758 17.1405 20.9887 -0.00182486 -0.00795661 -0.00101212
2632 10 4 46.9092 15.8125 18.1584 0.00710649 0.00188499 0.000894944
1968 7 2 45.8591 19.7436 18.2509 0.0112805 0.0218219 -0.00375283
1663 6 2 51.5709 16.3607 15.0517 0.000612354 0.0154843 -0.0040345
1591 6 1 46.1009 18.0122 15.8463 0.00122076 -0.00377951 -0.00131468
2113 8 1 50.977 22.0143 15.0424 -0.00926079 0.00187814 -0.00103462
1600 6 1 51.555 21.6261 20.1552 0.0021964 -0.00302557 0.00128009
1436 6 1 52.451 20.2382 18.9828 0.00698721 -0.00773592 0.00194392
2588 10 4 50.6261 20.4014 21.3299 -0.00812997 0.00289818 -0.00321364
2210 8 2 46.8664 21.5972 21.5846 0.0149194 -0.0223303 -0.00264576
2044 8 1 56.4938 16.7534 20.691 -0.00894086 0.000319767 -0.00175241
2558 10 1 56.6201 22.3253 21.5821 -0.00495995 1.81153e-05 0.00195725
2129 8 1 5.69076 24.4407 15.8185 -0.0022053 0.00535587 -0.00261659
1991 8 4 1.84768 23.7348 22.1494 0 0 0
2014 8 1 5.92708 24.7684 15.0691 -0.000125567 0.000324956 -0.00467155
2022 8 1 5.09816 25.2861 15.6649 -0.00131474 0.00212965 -0.00526885
2087 8 1 7.0152 24.5213 19.7222 -0.00590992 0.000892524 0.00459649
2631 10 1 7.08692 29.8107 15.5557 -0.00883363 0.00656387 2.74951e-05
2426 9 4 4.88971 24.3215 20.827 -0.00534252 -0.00260822 -0.00431999
251 1 2 2.90608 28.42 19.2691 0 0 0
2143 8 3 8.40977 23.8231 18.3515 0.000693909 0.00620325 0.000419806
2048 8 4 13.0799 23.4341 21.3497 -0.00201523 0.00334285 -0.00127413
1231 5 3 8.03804 25.9064 16.0046 0.00639922 -0.00572743 -0.00848696
2001 8 1 11.4619 25.4709 16.8868 0.00222275 -0.000508453 -0.00186207
2441 9 1 13.2461 25.0281 21.9907 -0.000920766 -0.00600517 -0.00338813
2542 10 1 15.8593 25.0892 19.803 0.000593303 0.000615693 0.00374999
2552 10 1 19.3224 26.7123 20.4498 0.00327016 0.00204931 0.0026823
1907 7 4 20.8873 22.5357 15.5922 -0.000650276 -0.00109173 -0.00187113
2411 9 1 16.5486 28.7222 16.5967 -0.00215696 -0.0013203 -0.00352053
2311 9 1 20.8556 23.9573 20.892 -0.00364856 -0.00439066 0.000887582
475 2 4 20.8252 25.3197 19.0159 -0.0048131 0.00274388 -0.00582124
2436 9 1 17.8688 27.5859 21.1267 0.000719521 -0.00424402 -0.00493411
2527 9 2 25.2249 25.1459 18.3806 0.00381957 -0.00587602 0.0195899
2003 8 1 25.5448 23.516 17.6284 0.00798791 -0.000782008 -0.00138385
2091 8 1 27.7964 26.4152 16.6737 0.00296058 0.0011813 0.0028771
1913 7 1 28.5018 29.5302 17.1826 -4.92784e-05 0.00337686 -0.00239615
2298 9 1 24.5656 22.5463 16.7135 -0.00319578 -0.00750947 -0.00205941
1561 6 1 25.7468 27.0155 20.1116 -0.00309769 -0.0014734 -0.00185657
2304 9 1 26.2683 28.2618 15.8944 -0.00217348 -0.00337767 -0.00241023
1894 7 1 29.823 28.9706 21.6566 0.00416402 0.000854648 -0.00118497
1817 7 3 25.9782 22.9888 22.0909 0.00193726 0.000729135 -0.00386404
1469 6 3 24.8878 26.2822 22.3039 -0.00133249 -0.00387152 -0.00167643
1409 5 2 23.3946 29.6881 21.0012 -0.0125893 0.0132157 -0.0295095
2238 8 2 31.331 25.3367 17.4092 0.031586 -0.0178437 0.0226065
2549 10 1 32.1611 24.1845 21.6237 0.00802604 0.000236995 0.00311146
2328 9 4 30.3249 24.5622 19.5521 0.00255917 -0.0041567 0.00232324
2399 9 1 30.076 26.6653 17.1923 0.00420759 -0.00408547 -0.00196868
2611 10 1 36.6585 29.3698 20.2654 0.0062818 0.00863672 -0.000916653
1604 6 1 31.9597 23.6726 17.2985 -0.00605651 -0.00311535 -5.00645e-06
450 2 1 36.0291 23.3522 16.6632 -0.00215274 -0.000747911 -0.00438153
1445 6 1 30.7379 23.319 21.4127 0.000340377 -0.00698721 0.00234228
1649 6 2 30.4897 22.5836 18.4558 -0.0236549 -0.00566257 -0.00494486
1222 5 4 37.0231 26.3552 15.4862 -0.00392157 -0.00404591 -0.00908513
963 4 1 34.9887 25.3319 21.3627 -0.00457331 -0.00632204 -0.00334331
253 1 2 41.1447 27.4938 19.564 -0.0206641 -0.0217029 0.0117676
2054 8 1 38.2655 25.9059 19.9286 0.00625101 0.00355317 -0.00081537
456 2 1 39.0201 29.946 18.2841 0.000107241 0.00248239 -0.00367077
1457 6 1 41.1622 26.8177 20.2436 0.00597167 -0.00469173 -0.000553762
1527 6 1 40.0496 23.0078 16.2499 -0.00361537 -0.0071713 -0.00355523
615 3 1 37.5175 26.5452 19.8147 -0.00774099 0.00398009 -0.00436772
1434 6 3 38.439 29.7166 15.505 0.00114921 -0.00443016 0.000612409
1444 6 1 40.2899 28.8552 19.1432 0.00355756 -0.00416831 0.00167048
728 3 1 38.8107 29.9034 22.0213 -0.00213254 0.00437015 -0.00430387
1697 7 1 48.1154 23.0023 16.2348 0.00742856 -0.00117467 -0.00440848
938 4 1 51.4853 22.9949 19.9727 0.00406292 -0.00459884 -0.00645411
1497 6 1 48.9407 27.331 20.6626 0.00301987 -0.00497681 -0.00499935
1118 4 2 58.2709 28.7148 15.4501 0 0 0
1461 6 1 55.5426 22.9477 19.9478 -0.0125018 -0.00541573 -0.000906478
1370 5 2 55.6638 25.5535 20.0388 0.00721951 -0.0058178 -0.00742607
425 2 1 57.3027 24.2635 19.9376 0 0 0
645 3 3 52.761 24.5533 19.4073 -0.00196078 -0.00213187 -0.00791588
528 2 2 0.416205 33.6262 21.0923 0 0 0
2056 8 4 3.83837 31.7218 16.3155 -0.00804505 0.00487153 -0.00299941
2182 8 1 1.47715 35.267 20.3514 0 0 0
1985 8 1 4.88377 30.7455 15.7938 -0.00202049 0.000543815 0.0011231
2002 8 4 2.28369 35.0732 17.7602 0 0 0
2373 9 1 7.17368 37.3644 16.1544 -0.00192613 -0.00436823 -0.00113943
1850 7 1 12.106 32.0256 16.183 -0.00154639 6.66371e-05 0.01288
2189 8 4 13.2881 34.6553 15.0713 0.00093043 0.0033497 0.00521893
836 3 2 10.8389 35.158 18.8358 0.0123567 -0.0169944 0.0140039
2539 10 3 13.7156 37.4757 17.8569 -0.000525369 0.00509586 0.00292436
2323 9 1 9.37227 32.431 15.6696 -0.00592269 -0.000589182 -0.000313371
2447 9 3 13.259 34.6362 16.0466 -0.00050721 -0.00352432 -0.00602415
1812 7 1 12.5931 35.679 17.6211 -0.00422395 0.00685398 -0.00508755
2763 10 2 11.2406 35.1649 16.2042 0.0241338 -0.0177709 0.000171679
597 3 1 11.9526 32.4467 22.06 0.00589985 0.00884866 -0.00627681
1467 6 1 8.92997 30.2177 21.6041 -0.00744121 -0.00274974 -0.00183317
2557 10 1 20.1465 31.5757 20.2073 0.00398659 0.00455427 0.00155892
2337 9 3 17.9822 35.7072 15.9053 0.000110087 -0.000506721 0.00124213
2339 9 4 20.3294 36.327 16.0709 0.00144017 6.27833e-05 0.000529966
2450 9 1 21.6755 35.2955 16.8604 0.00298022 -0.00380499 -0.00555422
1037 4 3 17.8091 36.829 21.7503 -0.00856438 -0.00405401 0.000616939
2489 9 2 23.9905 31.9154 15.8305 -0.0038038 -0.00247703 0.0208062
1950 7 2 29.5581 35.1753 19.9423 -0.01964 0.0292393 0.0177649
2319 9 1 26.6897 36.6872 21.0801 6.78643e-05 0.00138486 0.00183722
1450 6 1 24.638 34.9913 21.6048 -0.00149398 -0.00174469 0.00186353
1020 4 1 27.5999 32.8892 19.8735 -0.00065205 -0.0053451 0.000563418
2690 10 1 27.0214 32.5596 15.4614 0.00523536 -0.0128074 -0.00104184
1296 5 1 28.7361 36.3841 20.4094 -0.000567177 -0.00547555 -0.00325983
243 1 2 24.4586 35.916 16.8228 -0.00734455 -0.019046 -0.0107245
515 2 2 26.4993 33.0662 22.0449 0.0127545 0.0285869 -0.00546484
993 4 3 35.6191 30.0627 18.2067 0.00215243 -0.0047165 -0.0040793
979 4 1 32.1485 34.4215 22.01 -0.00244981 -0.00328059 -0.00245359
1662 6 2 31.8171 36.0898 20.0931 0.0167136 -0.00144726 -0.02759
2806 10 2 43.1324 34.3415 16.2947 -0.033007 0.012209 0.00175429
1426 6 4 42.7557 37.1031 16.2489 0.000797479 -0.00296196 0.00088594
981 4 1 42.5602 37.0274 19.9505 0.00256809 -0.00173184 -0.00344301
1502 6 1 38.9855 36.3282 15.9821 -0.00158862 -0.00249474 -0.00702398
449 2 1 42.2467 34.4458 21.871 0.000728267 0.00294792 -0.00209078
362 2 1 39.6607 35.438 21.9737 -0.00132814 0.000729984 -0.0088345
1380 5 2 48.3854 31.8608 18.9031 -0.025117 -0.00429288 -0.00582197
1427 6 4 49.1796 35.4343 21.862 0.00282305 -0.0019183 0.00279801
346 2 1 48.8457 32.5575 17.1873 -0.000242118 0.000987013 -0.00853228
511 2 2 51.499 33.1821 19.293 4.79972e-05 0.00689325 -0.00888359
1487 6 1 48.621 35.8426 21.3442 0.00519599 -0.00106457 -0.0045455
1518 6 1 49.2846 30.1194 20.5105 -0.000136953 -0.00440784 -0.00402578
1064 4 1 45.2971 37.0697 20.9345 -0.00144795 -0.00500812 -0.00452621
1543 6 1 57.962 31.277 21.3382 0 0 0
1537 6 4 56.0344 34.1714 21.884 0.00430136 -0.00230065 -0.000599216
617 3 1 55.0864 31.6225 20.7814 -0.00149706 0.00542741 -0.00398343
856 4 1 57.9699 36.355 22.4343 0 0 0
1672 6 2 54.5695 32.3695 17.8874 0.00734101 0.001155 -0.0273991
1978 8 1 4.44161 40.2755 15.8124 -0.00307335 0.00461658 0.00249656
1586 6 1 4.52313 37.9386 20.7867 0.00989045 0.00544345 0.00100228
1980 8 4 3.67824 42.5198 20.3405 -0.0035543 0.00422752 0.00391142
1622 6 1 6.22166 41.5555 16.6811 0.00541587 0.000803798 0.000800857
2094 8 1 5.55952 44.5831 20.6232 -0.00551059 0.00837764 0.0040961
2394 9 4 5.55778 41.5982 22.3869 -0.00433889 0.000780073 0.000625954
2435 9 1 6.4848 39.4367 19.2053 -0.00391048 0.000655464 -0.00485228
1105 4 2 3.8881 40.3316 22.085 0.012042 0.0242574 -0.00268799
1526 6 4 4.35089 40.2062 22.3153 0.00516836 0.00036408 -0.0018835
1056 4 1 0.903568 41.3577 22.179 0 0 0
1140 5 1 2.64434 43.4376 21.9976 0 0 0
239 1 2 9.41974 40.0716 21.7285 0.0087211 -0.0155009 0.018591
2561 10 1 14.6756 40.1487 15.8005 0.00242704 0.00790466 -0.000942186
1029 4 1 11.7827 42.3783 17.2219 0.0147135 -0.00161507 -0.000518842
1984 8 1 11.9976 40.6468 17.9101 0.000580258 0.00516751 0.00264683
1979 8 1 14.1688 40.0051 19.1283 0.00111952 0.00398844 0.00316653
1032 4 1 7.77231 40.1382 19.123 -0.0113655 -0.00278473 0.000373217
1453 6 1 12.8799 43.5015 17.603 -0.00557923 0.00228062 -0.000161993
2300 9 1 13.5036 44.9632 22.1654 -0.00762896 0.00194889 0.000384972
2264 9 4 14.4868 43.8422 20.5961 -0.00119607 -0.00368033 -0.00157755
2340 9 1 16.7987 38.5078 18.4138 5.66641e-05 0.000268711 0.00244231
2438 9 4 17.7279 39.5162 17.9826 0.000471951 0.000915281 -0.00490617
1309 5 1 21.3533 37.9986 21.2258 -0.0065555 -0.00518896 -0.0021581
923 4 1 18.2285 40.2578 20.5726 -0.00592379 0.00172954 -0.00612776
2188 8 3 23.1856 38.6025 16.6606 0.00420584 0.0047066 0.00527543
2622 10 1 27.3382 37.8968 21.0317 0.000691287 0.0110403 0.000508699
1880 7 1 24.1318 39.5544 18.2806 0.00389232 0.00379136 -0.00511254
1010 4 1 28.7045 41.4347 17.1784 0.00109418 -0.00153452 -0.00222504
2306 9 4 25.5296 43.3594 19.7518 -0.00301376 0.00214776 0.000261105
982 4 1 23.2379 44.215 18.2595 -0.00507563 0.000285612 -0.0040258
2262 9 4 27.4442 42.7424 15.5378 0.00287768 -0.00521704 -0.00265567
522 2 2 28.3453 37.9 18.8254 -0.00764549 0.0269972 -0.00816262
2480 9 2 26.0207 37.6847 17.136 0.00255307 -0.00544972 -0.02736
2755 10 1 36.6032 44.0469 15.7894 0.00835487 0.00740677 0.00299097
2530 9 2 32.0775 38.9781 16.5781 0.00765901 -0.00211195 -0.00501115
1670 6 2 35.1926 39.3405 16.1666 -0.00102696 0.00220582 -0.00246098
2400 9 1 33.3108 41.6249 16.7992 0.00515834 0.00165438 -0.00248672
1306 5 3 33.1194 37.8177 18.6043 -0.000999856 -0.00522171 -0.00292227
1505 6 1 35.1347 38.0549 21.6781 -0.0036733 -0.00189602 -0.00474994
791 3 2 39.6328 43.6391 18.7869 -0.0058917 0.0122789 0.0143888
223 1 2 39.5005 39.6255 18.5494 0.0012282 -0.0111262 0.010655
1593 6 1 41.4969 38.6403 16.1399 -0.000793656 0.0047677 -0.000760438
1438 6 4 42.2259 42.3277 21.2062 0.00299554 -0.000250504 0.00286568
1625 6 4 41.2783 38.8598 16.7322 -0.0048643 -0.000214894 0.00122049
1385 5 2 46.8439 44.644 15.0359 0.00165236 0.0221776 0.0158487
677 3 1 46.2648 39.9761 16.3811 -0.00248929 0.00524686 0.00953566
2291 9 1 48.3163 41.1874 15.0584 0.00633093 -0.00106863 -0.00339466
830 3 2 46.9864 43.1794 20.9562 0.000941761 0.0100354 -0.00487911
2088 8 1 59.046 39.6167 17.9419 0 0 0
2158 8 4 59.1242 40.981 21.2774 0 0 0
1902 7 1 56.7819 39.6201 22.3777 0.0139308 0.00581683 -6.69122e-05
2348 9 1 53.7376 44.056 18.2908 -0.00820416 0.000811197 0.00297991
533 2 2 59.9009 44.6245 19.5338 0 0 0
971 4 3 58.7693 37.9832 22.3454 0 0 0
2493 9 2 1.02646 47.4393 20.4181 0 0 0
1988 8 1 3.06404 47.0381 16.5127 -0.00242198 0.00787242 0.00126147
2333 9 1 2.3898 50.7251 18.4505 0 0 0
2375 9 1 5.19514 50.8422 19.7617 -0.00234275 0.00154007 -0.000436133
2693 10 1 5.74693 47.9995 17.4636 -0.00246203 -0.00624779 -0.000619758
457 2 1 0.94647 51.939 18.892 0 0 0
652 3 1 1.17153 45.4897 22.2633 0 0 0
1553 6 1 9.38751 51.008 19.2168 0.0127786 0.0071564 -0.00257806
1060 4 3 7.72842 46.8571 18.0322 0.00707137 -0.00118116 -0.00294272
985 4 1 12.6149 48.1029 22.3761 -0.00881643 0.00204277 -0.00245195
2645 10 1 20.455 46.5662 15.8136 -0.0029116 0.0114281 0.00211266
2429 9 1 20.7721 46.3839 18.2392 0.00136805 0.00507435 -0.00547993
866 4 1 20.4221 45.5408 15.407 -0.00751077 -0.00373089 -0.00689282
794 3 2 22.4529 49.1331 18.2374 0.0114284 -0.00877396 -0.00796863
2777 10 2 23.0947 47.3031 21.266 0.0256579 0.0160441 -0.00221519
1424 6 1 25.678 46.0675 18.7103 -0.00658521 0.00183458 0.00160132
1026 4 1 25.0302 49.3417 15.0344 -0.0034839 0.00117346 -0.00116145
1041 4 1 24.628 47.4936 21.9785 -0.0065384 -0.000462557 0.000525401
885 4 4 23.583 45.454 19.513 -0.00221042 -0.0030176 -0.00548518
535 2 2 28.284 49.034 17.3998 -0.00142442 -0.014084 -0.0111729
2310 9 1 30.7092 45.2489 19.5249 0.000256084 0.00411394 -0.000635225
2364 9 1 33.2308 51.757 18.6134 0.0095643 0.00236838 0.00148255
2376 9 1 35.1416 50.2866 21.0412 0.00873382 0.000880633 0.000640063
1052 4 1 30.4305 51.7141 18.0463 -0.0063414 0.000982429 -0.00192788
850 4 1 33.9225 49.9815 17.0833 -0.0049054 -0.000375395 -0.00531987
2714 10 1 34.2132 45.0731 16.4274 -0.0131167 -0.00785634 0.00237054
848 4 1 35.6029 49.7876 17.7716 -0.00515484 -0.00027697 -0.00539138
927 4 3 31.726 46.9649 20.0901 -0.00130038 0.00478596 -0.00606077
1443 6 1 38.1287 46.0797 16.9424 0.00280388 0.00217789 0.000798164
2296 9 1 37.57 47.8052 19.5279 0.00190639 0.0025657 -0.00148563
1617 6 1 38.8783 46.7847 17.8974 -0.00454909 0.00332389 0.000337341
2293 9 3 44.3659 46.6876 21.306 0.00478357 0.00164705 -0.00106719
933 4 1 39.6903 49.8852 18.5597 0.00043253 0.00609769 -0.00632892
881 4 1 43.409 47.6488 17.9811 0.00516958 -0.00253367 -0.00727117
2819 10 2 45.438 50.2397 18.5677 0.0116048 0.00956389 0.00485028
1631 6 1 49.2678 50.8932 15.0883 -0.000635668 0.00192729 -0.000821482
1486 6 1 45.4156 45.1276 21.4622 0.00390383 0.00354986 -0.00411512
1202 5 4 48.644 47.8149 19.3924 0.0054184 0.00255715 -0.00796943
1330 5 1 49.0111 49.6632 21.4722 0.000440831 -0.00229351 -0.00263112
33 1 1 52.2773 50.4818 22.2061 0.0045045 -0.00561368 -0.00705075
2689 10 1 58.3509 47.0591 19.7983 0 0 0
527 2 2 3.94122 59.1445 15.1103 0.00987529 -0.0131578 -0.0128315
2713 10 1 4.59051 55.8104 18.75 -0.0018586 -0.00319465 0.00331998
2460 9 4 7.05102 53.9161 21.3968 -0.00282879 0.00220522 -0.00227128
2037 8 1 11.1964 57.6245 15.395 -0.00194463 -0.00769739 -0.00545239
2660 10 1 8.94134 55.2553 22.2852 -0.00451546 -0.00868989 0.00488049
2363 9 1 9.75482 58.0342 16.2881 -8.24714e-05 0.00404569 0.000969629
2369 9 1 14.5263 58.9569 16.0014 0.00186974 0.00447397 -0.00111025
2370 9 1 8.26405 57.7912 16.4859 -0.00131638 0.00367889 -0.000500027
2463 9 1 10.3224 55.0303 17.109 -0.00132663 0.00146252 -0.00386839
530 2 2 11.5097 57.4985 21.3776 0.0131963 0.0110794 -0.0121978
1685 6 2 20.298 52.9481 20.5188 -0.011076 -0.0162059 0.00232713
2457 9 1 20.6529 52.6769 21.9655 0.00272516 0.00139915 -0.00242538
1798 7 1 17.6923 53.7679 21.753 -0.00193027 -0.00727722 -0.0042184
2194 8 1 28.447 54.2286 16.7762 0.00505078 -0.0147894 0.00360929
2524 9 2 24.1835 55.3813 18.1663 -0.0222126 -0.0156535 -0.00643547
1470 6 4 27.8642 54.7665 19.3916 0.000157299 0.00666301 -0.00301535
2257 9 3 29.4294 55.2833 20.4745 0.00435096 0.000259705 -0.0011082
1293 5 1 23.3436 58.4936 17.6498 -0.00238016 0.00418343 -0.00443007
1691 6 2 24.3363 59.4462 17.5275 -0.0109427 0.00581569 0.000796616
1322 5 1 25.3628 56.8069 19.0051 -0.00716369 0.00144877 -0.00324637
159 1 1 23.2369 57.0509 21.2718 -0.00436403 -0.00825643 -0.00344889
1926 7 2 35.8138 58.4449 21.5519 0.0261675 -0.0371173 0.0146875
1033 4 1 31.7563 57.0605 15.3297 -0.00216148 0.00439618 -0.00194372
2284 9 4 33.1595 57.0074 19.4375 0.0014386 0.00339178 -0.00179502
1301 5 1 37.1891 59.0537 17.228 0.00185205 0.0040995 -0.00363242
1508 6 1 36.7916 55.1664 17.6328 -0.00332214 0.00464017 -0.00601969
1323 5 1 36.7842 58.1407 19.3721 -0.00271431 0.0014355 -0.00315434
886 4 1 32.0393 55.6031 21.469 0.00147213 0.00117484 -0.00581562
987 4 1 44.0399 52.997 19.0688 0.00414437 0.00489282 -0.00387327
818 3 2 43.3585 54.4109 21.3126 -0.00451941 0.012314 0.0122774
1055 4 1 42.6215 55.4558 16.7407 -0.00215541 0.00260112 -0.00330014
1074 4 2 39.6279 54.1096 17.8264 0.000807158 -0.000784548 -0.00625024
2784 10 2 48.8089 59.201 17.3339 -0.0159813 -0.00496999 -0.00100206
2365 9 1 46.9886 56.7636 17.6214 -0.00919217 0.00328785 0.000999769
1237 5 1 45.8296 55.9859 17.1185 -0.00305737 0.00503918 -0.00749182
252 1 2 48.5384 55.8666 15.4895 0.0289942 0.0125578 -0.014387
1391 5 2 46.6922 57.0223 16.1548 0.0065545 0.0280353 -0.0317409
2581 10 1 59.7319 57.4576 16.6179 0 0 0
786 3 2 57.2994 59.1852 20.0654 0 0 0
1002 4 3 55.3243 54.8275 16.3894 0.0118049 0.00486862 -0.00351503
1519 6 1 57.7415 57.7043 17.2876 0 0 0
62 1 1 53.3984 54.1329 22.2822 0.00308416 -0.00879806 -0.00486831
1066 4 1 53.3302 58.0659 21.858 0.00124409 0.00359396 -0.00414722
627 3 1 0.265009 5.87657 27.1366 0 0 0
2353 9 1 0.818609 3.09488 25.722 0 0 0
1279 5 1 6.59912 1.51191 26.8426 -0.0102888 0.00612196 -0.00351936
2076 8 1 11.3147 3.49415 26.6519 -0.00614252 -0.00801074 0.00536634
2641 10 3 8.42029 5.8388 26.0635 -0.00812548 -0.00416728 0.00563021
1827 7 1 10.6508 7.24103 25.7841 -0.00367406 -0.00640639 -0.00481754
1963 7 2 10.0256 3.54175 28.864 -0.00204814 -0.0099201 -0.026024
2603 10 1 18.4593 1.72223 23.7716 0.000163709 -0.00227151 -0.000986542
1783 7 1 19.5727 0.786386 22.6539 -0.00103611 -0.00442945 -0.00666844
1896 7 4 21.8608 5.00915 27.49 0.000609918 -0.00800954 6.00126e-05
2795 10 2 16.9052 2.53256 29.3408 -0.0236311 -0.028693 0.00611631
1378 5 2 20.3516 3.97132 25.3141 -0.0122834 0.00935893 -0.00376837
1840 7 4 15.1087 3.03835 28.2793 -0.00119693 -0.00863146 -0.00585507
1081 4 2 27.7755 5.59025 24.6426 0.0247582 -0.0160659 0.018415
2692 10 1 26.0842 0.122659 24.0097 0.00523607 -0.00137134 0.00235386
149 1 4 29.9941 4.80333 23.7444 -0.00293035 -0.00443107 -0.00501744
2773 10 2 28.3308 6.44366 26.9677 -0.0179433 -0.00196174 -0.00093411
176 1 1 29.2342 6.18432 26.7806 0.000692873 -0.00394107 -0.00279016
607 3 1 31.754 5.80844 23.5396 -0.0100932 -0.00264702 -0.00344495
986 4 4 32.1609 5.7303 27.393 -0.00161443 0.00840732 -0.000280389
1146 5 1 31.32 5.94851 26.6154 -0.00480079 0.0031782 -0.00506306
905 4 3 30.9668 3.79643 23.966 0.00205593 0.00837497 -0.004668
882 4 1 35.9487 1.43418 25.112 0.00246148 0.00317807 -0.0036204
1059 4 4 44.9258 3.50877 26.1757 -0.00169289 0.00605391 -0.00031454
179 1 1 43.3557 6.81946 27.0569 0.00600308 -0.00421742 -0.00397004
1325 5 1 43.0995 0.689169 29.2968 -0.0006954 0.00229207 0.000641504
47 1 1 43.7231 1.4962 29.7928 -0.000960764 -0.00299792 -0.00194849
1048 4 1 46.0799 3.24642 22.5734 0.000335976 0.00562697 0.000243766
308 2 1 52.3193 5.56519 23.6128 0.00192451 -0.00408792 -0.00632569
74 1 4 50.7602 6.41496 23.8162 0.00291289 -0.00564641 -0.00507512
1400 5 2 45.998 4.90993 26.1484 0.0269844 -0.0194496 -0.0233318
2760 10 2 56.5635 7.19063 24.0197 0.0151458 -0.00785935 0.0066867
509 2 2 54.8433 4.13576 28.5887 0.00386053 -0.0290729 0.0191155
2132 8 1 54.5415 7.44614 26.8728 -0.00570299 -0.00128034 0.00194512
1303 5 1 53.1014 2.48206 28.9276 0.00769895 0.00532642 0.00119064
553 2 2 58.1971 4.98677 26.982 0 0 0
2179 8 4 3.13876 9.81033 24.8717 -0.0024789 -0.00453507 0.00823027
2103 8 1 7.25369 9.83408 22.5871 -0.00330052 -0.00437477 0.00375482
2492 9 2 6.9275 10.3331 27.6194 0.0149226 0.0142412 0.00221777
2145 8 4 7.14147 13.745 25.1512 0.00062299 0.0013896 0.0028977
2166 8 4 3.9989 13.0416 27.8084 -0.00279644 -0.00128776 0.00701936
2115 8 1 0.312643 12.4657 24.6361 0 0 0
2606 10 3 1.43198 10.293 23.435 0 0 0
316 2 1 3.44648 7.95348 26.7064 0.00508299 -0.00372421 -0.00467865
2013 8 4 3.00536 13.7052 29.4746 -0.000887056 -0.0035715 0.00203946
1687 6 2 6.39715 11.58 27.9429 0.00665726 -0.0349396 0.00401634
2688 10 1 7.62325 7.88791 25.4003 -0.0024643 0.000867963 0.00261331
2598 10 4 10.5717 9.0449 25.9872 -0.00192012 -0.000250439 -0.00098353
1887 7 1 13.9229 8.63611 24.9296 -0.00133685 -0.00816156 -0.00118335
823 3 2 11.3927 13.7264 22.5907 0.0081159 -0.00459542 -0.00665773
2501 9 2 20.151 10.6681 23.9389 0.00230241 0.0122161 0.0282007
2668 10 1 17.1192 9.6361 23.3309 -0.000529137 -0.00134756 0.00480114
2699 10 1 19.6825 7.65681 25.2708 0.00438179 0.00196712 0.00305471
547 2 2 20.8495 7.99204 25.2285 -0.00831541 0.0153752 -0.0010158
2659 10 1 17.2207 11.1506 28.5951 -0.0012153 -0.00197696 0.00782965
2679 10 1 19.328 14.4077 29.3776 0.000968812 0.0022515 0.00512703
2615 10 1 15.7093 14.1827 23.0588 -0.0030371 0.00199069 0.000279538
2610 10 4 18.3835 11.5604 25.7573 -0.000846995 0.00100655 1.451e-05
2024 8 4 21.1312 8.2575 26.7229 0.00449887 -0.0057158 -0.00148245
168 1 1 21.3578 8.22528 29.1335 -0.00375007 -0.00304029 -0.000742607
345 2 1 17.9484 12.3025 25.7676 -0.0132706 -0.00774821 -0.00539576
1972 7 2 19.2858 13.9976 23.1546 -0.0281317 0.020853 -0.0252746
2155 8 1 22.7372 14.1127 22.9825 0.00557489 0.000551469 0.0045482
498 2 2 29.8476 8.263 25.7595 -0.000416953 0.0219888 0.015623
2139 8 1 25.2284 9.46107 27.5644 0.00705135 0.000631629 0.00329736
1804 7 3 22.5692 14.6382 29.0313 0.000178096 -0.00021791 -0.000236691
2067 8 1 27.4803 9.73412 25.5705 -8.26602e-05 -0.00443995 0.00377981
70 1 1 22.5883 9.3879 28.1572 -0.0087911 -0.00444004 -0.00359192
1886 7 1 28.5033 14.9498 23.27 0.00478132 -0.0053017 -0.00219719
2673 10 1 30.1105 14.45 22.6442 0.0050934 0.00152441 0.00309848
1955 7 2 33.8899 8.29209 25.2248 0.00624435 -0.00886036 0.0160175
2630 10 1 31.3499 9.70711 22.5868 0.00131678 -0.00170836 0.00210911
1335 5 1 34.3565 7.52457 29.1792 -0.00624259 0.00528903 -0.000629135
1278 5 1 35.2618 7.93471 24.2214 0.000759517 0.00896349 -0.00430742
1417 6 1 35.2958 10.255 28.8591 -0.00404609 0.0108652 0.00536446
1331 5 1 34.836 9.63705 23.0171 -0.00564759 0.00604922 -0.00271235
2239 8 2 30.802 12.0065 25.1506 0.0325732 0.00207018 0.00205023
1810 7 4 32.5453 14.0286 27.074 0.0033125 -0.000709752 -0.0012696
1372 5 2 44.5774 11.3147 23.8698 -0.0231918 0.0137479 0.0167627
245 1 2 38.6843 13.4443 29.4194 -0.00152308 -0.00439228 0.0174118
209 1 1 42.329 8.33255 24.3674 0.0055204 -0.00230818 -0.0112318
138 1 4 41.7315 8.678 26.807 0.00181341 -0.004648 -0.0061504
2804 10 2 44.9931 9.21806 26.882 0.0150988 -0.0219868 0.0039472
1184 5 1 38.7194 10.3224 28.5231 0.00330094 0.00913415 -0.00588957
488 2 1 41.5561 11.8023 29.4521 0.00396525 -0.00142829 -0.00484197
59 1 3 39.4449 12.2408 29.4015 -0.00254683 -0.0010209 -0.00180658
328 2 3 44.1957 11.5864 29.5363 -0.00411692 -0.00483103 -0.00317829
1949 7 2 42.2774 14.1118 29.9717 -0.0159966 -0.0040969 -0.0259637
2213 8 2 47.1125 14.7323 25.3938 0.011567 0.0232309 -0.00140569
23 1 1 48.5095 12.5661 28.7887 0.00451579 0.00267405 -0.00616772
480 2 1 52.4633 12.3977 29.1772 0.00801412 -0.00263011 -0.00383073
534 2 2 58.4041 7.75726 26.8592 0 0 0
2513 9 2 55.2155 8.57407 28.6113 -0.00923621 -0.014 0.00241493
235 1 2 57.6062 12.0366 24.0829 0 0 0
803 3 2 3.63843 16.1868 24.7734 0.00217017 -0.00373047 0.0212606
2556 10 1 6.06417 18.8766 22.508 -0.00155513 -0.00106135 0.00262241
1360 5 2 4.45101 20.7786 25.9611 0.0119784 0.0345934 -0.00785438
2597 10 3 5.43727 16.0964 26.5989 -0.00360549 0.00315618 -0.000123639
2066 8 1 2.43359 20.1375 29.0739 0 0 0
2608 10 1 0.0472505 20.9864 22.8536 0 0 0
2389 9 1 6.48485 16.9 24.8981 -0.00408206 -0.0100984 0.00101165
2009 8 1 5.93887 22.4387 26.0749 5.54737e-06 -0.00136691 0.000371969
1881 7 1 3.0781 21.3649 22.6617 -0.00508236 -0.00278885 -0.00338654
1871 7 1 5.46477 20.8283 23.3933 -0.00318009 -0.00380627 -0.00465306
2256 8 2 2.27825 18.5443 25.8712 0 0 0
1838 7 1 3.32809 19.0208 29.0932 -0.00647716 -0.00331848 -0.0049447
2245 8 2 5.57683 17.5013 22.8784 -0.00197167 -0.0226111 -0.019655
1353 5 2 0.238048 21.5039 25.4909 0 0 0
2574 10 1 7.91756 20.7946 25.6017 0.000455424 0.00189465 0.000767498
2584 10 3 14.3885 20.8597 25.3216 0.00199418 0.00343707 -0.00102417
2031 8 1 11.7037 18.6932 27.82 -0.000728537 6.4481e-05 -0.000753589
337 2 1 12.187 17.3749 25.2545 0.00751322 -0.00425843 -0.00517822
2417 9 1 8.2901 20.7768 24.2042 -0.00562756 -0.00436009 -0.00188951
1228 5 1 13.5773 21.3971 27.4283 0.0091661 -0.00729355 -0.00459148
248 1 2 21.3511 18.9015 28.3995 0.0151292 0.022215 0.0149926
2161 8 1 15.5085 17.1216 23.2745 0.00244781 0.00102584 0.00521899
2142 8 1 18.4609 22.0781 22.6711 0.00488396 0.00513485 0.00178685
2149 8 1 22.1332 19.2464 24.4322 0.0055273 0.00402096 0.00414329
2107 8 1 17.0887 17.6966 24.2185 0.00058749 -0.00044495 0.00383021
2454 9 1 19.6214 15.9115 23.171 0.00255854 0.0118118 -0.0024056
2612 10 4 20.3865 17.008 23.6571 0.00057381 0.00415959 0.000586021
497 2 4 20.9671 15.1239 23.6866 -0.00363077 0.00111154 -0.00825696
2026 8 4 16.2125 18.7725 22.586 0.00347539 -0.000264218 -0.0022
2016 8 1 16.3611 20.3298 25.8472 0.00353005 -0.00157728 -0.000537512
2070 8 4 19.4664 19.7448 24.7713 -0.00256184 -0.0011073 0.00250772
2616 10 1 22.1164 18.2215 25.0263 -0.000286659 0.00389858 0.0014989
1816 7 1 22.2091 17.3459 26.0311 -5.59736e-05 -0.00130443 -0.00219197
145 1 1 15.0379 19.6124 25.2702 -0.00934164 0.000233763 -0.00466071
2190 8 2 15.1482 18.3384 27.5258 -0.0231343 -0.00375903 0.00979393
1860 7 1 15.1418 20.974 23.0186 0.000756709 -0.00517358 -0.00703815
926 4 1 21.899 19.8671 25.2698 -0.004932 -0.00616997 -0.00354889
290 2 4 20.8572 17.1823 26.9196 -0.0062239 0.000870102 -0.00762937
2404 9 4 26.8926 20.6682 22.5465 0.00303742 -0.00558993 0.000440998
1905 7 4 26.2154 20.8615 24.4016 0.000852551 -0.000687392 0.000325044
2395 9 1 28.5094 17.2642 28.0464 0.00373337 -0.00889792 0.00208217
114 1 1 27.7498 17.8093 23.675 -0.00338647 -0.00127349 -0.0116292
729 3 1 28.7499 20.2239 26.6564 -0.00540204 -0.000119245 -0.00248464
240 1 2 23.8511 20.5015 29.6509 -0.00788478 0.0250338 -0.00270485
532 2 2 34.679 16.914 25.4906 0.0486696 0.0190004 0.0144115
466 2 4 35.9829 16.6194 29.888 0.000307155 -0.00190823 0.000348014
156 1 3 37.1004 16.338 28.2415 0.000379771 -0.000453981 -0.00107539
1592 6 4 31.3882 15.548 25.4041 -0.00397992 -0.00464641 0.00188525
1498 6 1 31.6944 16.698 24.2764 -0.00344984 -0.00971399 -0.00427624
1589 6 1 36.2874 20.1726 28.4022 -0.00229062 -0.00263816 0.00347967
819 3 2 32.7894 22.0581 25.9924 -0.00769544 -0.0235804 -0.00831023
2208 8 2 33.1371 19.5816 24.8374 -0.014438 -0.00162895 -0.0253911
1716 7 3 39.6691 15.6271 23.6244 0.00397445 -0.00676237 -0.00454424
625 3 4 44.0827 18.6528 29.648 -0.00426733 -0.00070047 -0.000458001
616 3 4 48.1342 18.4358 28.9741 -0.00294034 0.00145353 -0.000927173
1571 6 1 50.0092 21.6641 25.0625 0.00662726 -0.00166676 0.00115861
36 1 1 47.9583 18.8768 26.5105 0.00293334 0.00540191 -0.00452461
997 4 1 46.6365 18.5938 24.6627 0.00750501 -0.00959009 -0.00144334
1570 6 4 48.8008 22.1654 24.1027 0.00601912 -0.00130225 -0.000581726
1542 6 1 45.8371 22.4176 29.1251 0.000880426 -0.00518696 0.00179282
1501 6 1 49.7559 21.7104 23.5359 0.00237437 -0.00774064 -0.00452083
1413 6 1 48.8461 20.5742 29.9023 0.00111606 -0.00985752 0.00576052
589 3 1 51.4128 17.4268 29.4736 -0.00210966 0.0028503 -0.00478297
2242 8 2 54.165 16.1826 28.6728 -0.00424278 0.00274463 0.0292159
1126 4 2 52.586 20.7208 24.7786 0.0017392 0.0125695 -0.00330577
1349 5 1 56.9646 15.1009 25.7842 0.000793454 0.00793957 -0.00425112
2586 10 1 58.5571 16.8788 25.5412 0 0 0
2117 8 1 59.828 19.6821 29.8773 0 0 0
157 1 1 55.0424 21.5483 25.1616 0.00788695 0.00129174 -0.00203498
692 3 1 55.5147 15.8603 29.6394 0.00179109 -0.00282866 -0.00689503
783 3 1 54.6397 19.5842 23.9222 0.000101895 0.00131248 -0.0131763
1645 6 2 59.3971 16.8619 28.4504 0 0 0
2554 10 4 1.65902 25.232 26.0868 0 0 0
2192 8 1 5.04486 29.8635 28.2802 -0.00395126 -0.000367389 0.00781568
2591 10 1 11.0457 23.802 28.9311 -0.000604515 0.00523999 8.96478e-05
2658 10 1 9.44728 27.9423 26.4576 -0.00471469 0.00400454 0.00646705
2000 8 1 13.8012 22.8768 27.7464 0.00320087 -0.00103488 0.00320615
1458 6 1 8.3665 24.8415 24.7405 -0.0073966 -0.00471501 0.00155861
1005 4 1 7.51196 25.3104 27.025 -0.00714282 -0.00704343 0.00162199
2440 9 4 12.5931 26.1405 26.1448 -0.00140757 -0.00476099 -0.0034269
1460 6 4 9.91106 24.0366 23.0779 -0.00640198 -0.00629175 0.000551579
2004 8 4 15.387 28.8977 29.5511 0.00389439 0.00177266 0.00423164
1977 8 1 15.8948 29.2907 26.543 0.0014631 -0.000580112 0.00645641
184 1 4 20.145 24.9297 25.5715 -0.00207722 0.00353229 -0.00420141
1883 7 3 18.8952 29.1629 23.583 0.00125168 0.000163144 -0.00250201
2408 9 1 21.5227 22.8346 22.8625 0.000487479 -0.00413658 -0.000458982
1787 7 1 17.872 29.0771 26.2606 -0.002404 0.00682442 -0.00467137
2589 10 1 29.6143 28.9308 27.9203 0.0076573 0.00744673 0.000168923
2318 9 1 26.229 23.3848 25.6774 -0.000177208 -0.00415607 0.00316295
2418 9 4 29.2733 28.6516 25.8042 0.00226612 -0.00175977 -0.000685918
999 4 1 24.1064 24.0607 22.6168 -0.00105185 -0.00747013 -0.00194246
983 4 1 26.2865 26.4581 23.3245 -0.00340142 -0.00606554 -0.0021286
471 2 1 22.6897 24.3496 27.219 -0.0046969 0.00139065 -0.00325239
10 1 1 27.8778 23.5424 29.3281 -0.00236729 0.00552857 -0.00826835
2057 8 4 36.1908 26.1221 26.7094 0.00546311 0.00393162 0.00230617
1892 7 3 35.4283 29.3905 26.4275 0.00646692 0.00114461 0.000196999
2410 9 1 32.6586 25.6813 24.066 0.00481704 -0.00260828 -0.000355608
2050 8 1 36.576 27.2395 26.2567 0.00634841 0.00443941 0.00116228
1583 6 1 31.8181 28.2358 25.6685 -0.00293717 0.00176472 0.00188621
1711 7 1 34.0526 27.1953 23.5518 0.00229862 -0.00113346 -0.00361647
1472 6 1 36.6008 24.0233 27.4951 0.00296393 -0.00473029 -2.47586e-05
1549 6 1 34.4945 25.6822 26.9752 -0.001863 -0.00347432 0.00122927
1481 6 1 33.4269 23.4052 23.9889 -9.44558e-05 -0.0057035 -0.00307684
1462 6 4 32.2971 28.1121 24.2952 0.00200405 -0.00305235 0.00169488
153 1 1 34.2599 28.7182 28.3788 -0.00150445 0.00470289 -0.00163649
76 1 1 36.1745 26.7628 26.4446 -0.00317339 0.00183513 -0.00501415
1407 5 2 36.649 28.9097 23.997 -0.00634641 -0.0113469 -0.00448599
1738 7 3 31.9687 28.8366 27.3059 0.00135748 -0.00144537 -0.00764843
906 4 4 34.4871 29.2889 28.6572 0.00330525 -0.00547525 -0.00370271
1832 7 4 39.5672 22.9488 24.2277 0.00742528 -0.0012357 -0.00482373
438 2 3 37.7125 25.4732 28.0652 -0.0027222 -0.00136472 -0.00102032
426 2 1 39.0758 23.0335 24.8695 -0.00144687 -0.0015158 -0.00501022
947 4 1 39.7921 23.0554 26.109 -0.00239194 -0.00431383 -0.00280279
1065 4 1 43.3607 24.1223 24.5231 -0.00292733 -0.0104879 -0.00227276
429 2 3 38.8613 22.9342 27.7213 -0.00190748 -0.00217592 -0.00333466
1368 5 2 44.3232 26.2558 26.9261 0.00391167 -0.0070009 -0.00537315
635 3 1 43.5889 27.3952 22.5342 -0.00567884 2.20711e-05 -0.00515111
463 2 1 40.3818 26.5691 29.5044 0.0018923 0.00163485 -0.00109784
411 2 1 43.0185 29.7243 29.739 0.00212538 0.00267532 -0.00515238
826 3 2 46.2731 28.9724 24.5866 0.0232316 -0.022115 0.0197002
505 2 2 52.4704 26.4188 23.7641 0.00438018 0.0293015 0.0145084
1952 7 2 45.1787 28.889 24.7878 0.00981548 0.0245736 0.0183967
1365 5 2 48.0537 24.135 27.3675 0.00660869 -0.0075096 0.0172646
2568 10 4 49.2281 23.3263 23.7251 -0.00722675 0.00221532 0.00209043
1585 6 1 50.6906 25.7658 23.4759 0.00411625 0.000561531 0.00114356
1610 6 3 48.9632 23.2868 28.5131 -0.000126726 -0.00469649 0.00480963
721 3 1 47.6779 27.5923 22.7233 0.000923174 0.00218253 -0.00363668
424 2 1 47.6868 26.7947 27.2629 0.0022095 0.000467073 -0.00425923
437 2 1 46.2218 27.3297 29.26 0.000677134 -0.00075212 -0.00110721
1246 5 4 47.4602 25.8547 26.7485 -0.00182153 -0.00800252 -0.0038458
2562 10 3 51.49 23.7146 27.4295 -0.0066032 0.00155425 0.003239
278 1 2 50.3294 22.614 27.5596 0.033983 0.00376519 -0.00955375
725 3 1 47.9428 29.7957 29.5049 0.00122672 0.00391186 -0.00107884
548 2 2 56.8297 26.3304 26.6762 0.00516347 0.000435778 0.0231165
1572 6 4 58.9368 25.5521 22.5177 0 0 0
2025 8 1 54.9224 24.0211 25.5828 -0.00584984 0.00187163 -0.0014645
2005 8 1 56.8103 26.0575 25.0285 -0.00366508 -0.000398204 0.000846984
319 2 3 57.6402 27.4331 24.2682 0 0 0
1058 4 1 56.5235 22.8146 22.7664 0.00276981 -0.0109886 -0.000575043
332 2 4 59.9691 27.7426 26.9625 0 0 0
974 4 1 53.1419 27.9424 28.9005 0.00481877 -0.00592025 0.000398216
2442 9 1 58.9559 25.9872 29.6479 0 0 0
1602 6 4 0.548567 35.0457 23.1946 0 0 0
2759 10 1 6.45274 30.1733 27.3789 -0.0046021 0.0015121 0.00776955
1868 7 1 1.74182 36.2963 24.8236 0 0 0
2387 9 1 0.724449 34.854 24.5218 0 0 0
2421 9 1 6.96679 37.1305 26.4478 -0.00537688 0.00238779 -0.00174089
2390 9 3 5.02514 33.4054 23.9868 -0.00500555 -0.00302904 0.000654705
2386 9 1 3.95924 37.2942 28.4654 -0.0042059 -0.00233912 0.00252536
1070 4 2 6.0308 36.9845 25.6536 0.00900672 -0.00569418 -0.00145296
992 4 1 6.01498 36.9099 28.4821 -0.00997281 -0.00244163 3.36456e-05
1085 4 2 12.2621 30.2393 28.6153 -0.00594074 -0.00333107 0.0207529
2585 10 1 10.2867 34.0494 23.0546 -0.00010252 0.00873218 -0.00222815
644 3 1 13.9742 31.1284 23.933 0.00699687 0.000636563 -0.005872
1888 7 1 13.5011 32.7669 23.4113 -0.00127637 0.00238275 -0.00209349
1473 6 1 9.23778 33.2112 27.3729 -0.00785489 -0.00121993 -0.00059563
1839 7 3 9.38987 31.1366 29.5458 -0.00378805 0.00174985 -0.00518327
2563 10 1 16.7635 33.9352 22.6079 0.00347859 0.00543728 0.000806759
844 3 2 21.4426 32.5937 29.1753 0.00980583 -0.0177801 0.0140625
2415 9 1 16.6408 33.8899 28.5451 -0.00190728 0.00127837 -5.79593e-05
1870 7 3 17.8827 31.2559 23.4354 0.00210708 -7.32319e-05 -0.00464344
1019 4 1 19.811 30.9752 28.7009 -0.00391919 -0.00516671 0.00394795
1514 6 4 22.0364 35.9824 24.7608 0.0131657 -0.00212545 -0.00352409
2290 9 1 17.0343 33.764 27.0823 -0.00558548 -0.0040336 0.000760111
2432 9 1 17.6129 31.1422 28.8327 -0.000179632 -0.00184832 -0.00193893
2368 9 3 29.2696 32.323 25.596 0.00760665 -0.00636918 0.00321238
913 4 1 27.0832 36.9944 24.5133 -0.000469136 -0.000966632 -0.00423348
1083 4 2 22.923 34.8594 27.3037 -0.0010776 -0.00225906 -0.00386333
1506 6 4 29.232 32.4165 29.7828 -0.00515879 -0.00429979 -0.00121048
1111 4 2 32.3635 34.2722 29.658 0.00273341 -0.00295671 0.027382
2430 9 1 30.1568 33.3359 25.3825 0.00453192 -0.000501225 -0.00330142
1463 6 1 31.7052 30.3536 24.1708 0.00208126 -0.00307098 3.51062e-05
1705 7 1 33.8327 31.2164 29.2087 0.00147908 0.00105775 -0.000237706
2308 9 4 33.4825 35.2532 27.555 0.000831784 -0.000582326 0.0017644
1540 6 1 30.4903 35.8648 28.1427 -0.00575548 -5.4087e-05 0.00147149
1207 5 1 36.2094 34.7361 22.9405 -0.00168104 -0.00166514 -0.00753499
1073 4 2 33.1092 37.471 28.6037 -0.00133832 0.0180908 -0.0252989
1995 8 1 44.0503 34.3716 23.1249 -0.00946628 0.00328986 0.00228396
274 1 2 44.2852 32.0766 26.5384 0.00662449 -0.0182617 0.0167954
452 2 4 42.1155 32.9231 25.8545 0.00103659 0.00200444 -0.000387007
1556 6 1 38.7257 34.8298 23.4037 0.00109068 0.000961922 -0.000290913
861 4 3 43.7475 32.8665 25.9345 0.00112339 -0.00817781 -0.00235819
604 3 1 43.9968 31.9722 29.3225 -0.0054221 0.00813766 -0.0020238
1273 5 1 38.4907 30.8978 29.6419 0.00109428 -0.00558168 -0.00226445
1575 6 1 47.8288 35.1163 22.7697 0.00507913 0.00457411 0.000365085
1614 6 4 50.5932 36.03 23.7731 0.000866064 -0.000126791 0.00223164
715 3 1 47.4625 32.3981 22.6297 -0.000963807 0.00425525 -0.00444932
1609 6 1 51.7263 35.5783 28.2063 0.00125491 0.000713705 0.00458131
962 4 4 50.9757 34.8215 25.4506 0.00139627 -0.0014998 -0.000905742
1965 7 2 45.5591 36.7353 29.3794 -0.0126519 0.00264772 0.000561774
756 3 4 47.0204 35.4056 22.9131 0.000883376 0.00616503 -0.00899395
423 2 1 47.4922 31.9856 26.6507 0.00247887 0.00150624 -0.00487052
1226 5 1 50.1 37.1009 28.2701 0.000151614 -0.00105282 -0.00466796
158 1 1 58.8644 30.8717 26.9557 0 0 0
1802 7 1 59.3483 35.4149 26.8236 0 0 0
1511 6 1 55.6025 30.9349 24.7235 0.00291421 -0.00448006 -0.00334419
2799 10 2 0.991789 41.2592 24.1397 0 0 0
1057 4 1 3.78634 40.1788 26.0524 0.00588254 -0.0035273 7.41783e-05
2449 9 4 5.34088 38.4051 29.6638 -0.00361005 -0.00205116 -0.00150129
1345 5 1 4.97899 41.5269 29.374 0.00479079 -0.00600524 -0.00258759
626 3 1 9.2576 38.33 26.7425 0.00499944 0.00635919 -0.00191059
1647 6 2 9.85687 37.7821 28.8216 -0.00720165 0.0244956 -0.0241174
531 2 2 10.7142 42.5812 26.7912 -0.0332495 0.00614009 -0.0345187
2335 9 1 18.409 38.2428 23.391 -0.000217197 0.000563509 0.00444601
2274 9 1 16.6422 38.6721 27.9838 -0.00329713 -0.00455435 0.00107353
2286 9 4 19.7875 38.6754 24.0821 -0.00307539 -0.00284344 -0.00112798
2295 9 4 22.05 42.7021 24.0555 -0.00360918 0.000465259 -0.000603397
2764 10 2 20.6465 40.6717 26.4656 0.00473342 0.00694548 -0.0199826
1283 5 1 17.9942 44.5865 29.7474 -0.00514672 -0.000502189 -0.00159102
2251 8 2 27.6884 42.6329 23.1224 0.00568857 0.00737997 0.00660935
2316 9 4 28.1287 42.0532 22.8669 -0.000375339 0.00288329 0.00254034
1904 7 1 22.8052 39.4878 26.5279 5.72883e-05 0.0058979 0.00204797
1452 6 1 28.3538 43.3243 26.8162 -2.48532e-06 0.00127572 0.00348207
2317 9 4 27.4711 42.6253 27.576 -1.91502e-05 0.00366092 0.00280121
2289 9 1 23.5614 44.2144 22.5661 -0.00323024 -0.00018303 -0.000680757
972 4 4 23.7954 42.7076 26.9529 -0.00770865 0.000437851 0.000376373
871 4 1 27.557 41.1484 25.5372 -0.00301322 -0.00542625 -0.00353151
2609 10 1 28.244 40.7188 27.6012 0.00272722 -0.0111169 0.00158487
2771 10 2 25.6458 40.2521 28.3087 -0.0164469 -0.0129008 0.00042467
1573 6 1 34.1385 38.7046 29.0195 -0.000173404 0.00592505 0.00235619
464 2 4 34.8686 44.3816 26.8909 -0.000875372 0.00802264 -0.00203562
991 4 1 33.3152 42.8465 25.5214 0.000866085 0.00079298 -0.00122622
995 4 4 35.589 39.8617 28.8352 0.00205678 -0.00171452 0.000270067
912 4 1 32.5558 38.9641 26.5857 0.00167394 -0.000617173 -0.00305812
860 4 1 35.7798 41.6579 23.7187 -0.00227569 -0.00438164 -0.00282811
1489 6 1 32.089 44.4368 28.7567 -0.00179322 0.00203231 -0.00179491
634 3 1 37.4321 43.3225 23.1555 -0.00737278 0.00670699 -0.0045886
1969 7 2 36.6273 37.7053 24.8806 -0.0182731 0.0056061 -0.024313
2204 8 2 31.4895 41.22 29.7029 0.0105506 0.00712361 -0.0207596
1659 6 2 42.4748 44.2096 27.9624 -0.00294888 -0.000122952 0.0230961
2038 8 1 38.144 40.0814 26.7659 0.00931042 0.00931816 -6.20275e-05
560 2 2 40.4184 39.5249 23.6676 0.00397334 0.0103992 -0.00720577
1021 4 1 37.977 40.1221 27.143 0.00280201 -0.00158315 0.00340881
630 3 1 40.3169 42.4306 26.8279 -0.00621724 0.00747025 -0.00260846
1419 6 1 44.6599 37.7941 29.7017 0.000388369 -0.00275915 0.00597546
1468 6 1 43.7576 44.3042 24.4445 0.00624864 0.00365448 -0.000381017
969 4 1 40.9364 38.4494 27.9321 -0.000980627 -0.00143346 0.000309655
1717 7 1 39.4751 43.3313 26.9695 0.00343685 0.00430532 -0.00349662
261 1 2 46.4761 43.333 24.7295 0.00293324 -0.01318 0.0202238
1588 6 3 45.4431 44.041 29.058 0.00146684 0.00736839 0.00401482
960 4 1 47.7051 43.3316 28.7053 0.000237253 0.00120664 -0.000750266
1346 5 1 50.0383 41.0561 23.7433 -0.00116868 -0.00558318 -0.00559707
849 4 1 50.4066 44.0918 29.2777 0.00149985 -0.00308087 -0.0012161
1235 5 1 47.1943 41.0501 29.8265 -0.00247986 -0.000463147 -0.00271059
1230 5 1 47.2517 40.2114 28.8079 -0.00171893 -0.000145858 -0.00385283
234 1 2 57.3732 40.9243 26.4219 0 0 0
2496 9 2 53.0268 37.6778 27.5822 -0.0121901 0.00110751 0.00373448
1484 6 4 54.2952 38.7687 27.0364 0.00824048 0.00167026 -0.00123745
1550 6 4 55.0263 40.2335 24.1558 0.00587051 0.00205059 0.000850712
1485 6 1 52.7208 39.7542 23.4655 0.00737071 0.000412885 -0.00355458
1495 6 1 55.8303 38.9109 28.4775 0.00625333 -7.8827e-05 -0.00176419
1243 5 1 54.5021 43.6619 29.1185 0.00144126 -0.00104604 -0.00161179
1415 6 1 3.98918 49.7957 22.7545 0.00760007 0.00215986 0.00302378
1628 6 1 0.0442967 51.6694 24.7745 0 0 0
1124 4 2 2.87036 45.0598 27.4099 0 0 0
1092 4 2 0.428314 51.0748 28.5847 0 0 0
1406 5 2 13.769 48.7755 25.2551 0.00940078 -0.0273202 -0.00107037
1620 6 1 10.5561 46.4712 27.29 0.00749044 0.0031533 0.00484
2384 9 1 13.1939 48.024 25.7557 -0.000733622 0.00143479 0.0014227
2382 9 4 9.21099 47.4939 22.7812 -0.0011876 0.00100517 -1.12908e-06
2281 9 1 13.4684 50.2268 29.0124 -0.00635143 0.00106513 0.00172255
1665 6 2 10.2202 48.566 25.5803 0.0104745 -0.019838 0.00144571
804 3 2 11.8068 51.1537 29.7496 -0.0173729 0.0349419 -0.00179416
1983 8 1 19.1062 49.6998 23.7668 0.00336887 0.00771791 0.0045559
2269 9 1 19.8464 52.0083 23.6339 -0.00157742 -2.86953e-05 -0.000271638
1292 5 1 20.468 48.947 22.871 -0.00357278 -0.000143593 -0.0031736
1175 5 1 18.7573 49.3341 24.7201 -0.0049023 -0.00052917 -0.00841835
1729 7 3 18.0242 46.7553 27.6765 -0.00488472 0.00503213 -0.00547062
1449 6 4 26.2542 51.1772 24.6226 -0.00160271 0.00549689 0.00350386
1291 5 1 25.5511 52.0883 22.879 -0.00139636 0.00210452 -0.00260639
1310 5 4 28.137 45.5998 26.5543 -0.00325681 -0.0015401 -0.000424668
1176 5 1 24.768 49.2388 25.5269 -0.00222359 -0.000761675 -0.00729762
968 4 1 27.1243 47.7567 28.4989 -0.00695906 0.00215109 -0.000210823
1028 4 4 29.261 50.3442 29.0796 -0.00156598 0.00239807 0.00340343
1167 5 4 28.3392 51.8256 24.2072 -0.00196912 -0.00169374 -0.00700192
817 3 2 33.4801 48.6405 23.2647 0.0173233 0.00913858 -0.0111921
1483 6 1 31.5107 48.4593 25.4649 -0.00112291 0.00479414 -0.00236966
2275 9 1 31.8747 52.077 25.1175 0.00286029 0.00136361 -2.18033e-05
2272 9 4 31.5734 51.0599 22.7694 0.00270135 -0.000596428 -0.000392632
2271 9 3 34.8514 46.1556 25.1901 0.00443054 -0.00191657 5.08561e-05
1027 4 1 32.3825 45.9223 27.7528 -0.00101342 0.000135719 0.00325114
1035 4 1 30.914 52.0353 29.0834 -0.00297921 0.00236052 0.00329218
1298 5 4 37.4252 50.2561 27.7503 0.00298849 0.00117165 0.000461315
869 4 1 33.2808 46.6739 25.7036 -0.00143249 -0.00301082 -0.00279334
2058 8 1 42.6118 46.3973 27.1121 0.00726431 0.0111457 0.00240403
1004 4 1 40.0129 51.0199 28.775 0.00567236 0.00281557 0.0015664
2279 9 1 39.5994 47.1614 26.3689 0.00499536 -0.000468652 0.000347556
2302 9 3 42.4597 49.9133 29.0226 0.00398108 0.00491413 0.00308026
1308 5 1 44.8777 47.4817 26.1717 0.00344508 -0.00174774 0.000379473
1262 5 3 39.4065 47.2954 26.2256 -0.000709819 6.57467e-05 -0.00332817
1520 6 1 43.4839 49.745 28.9488 -0.00264082 0.00359562 -0.000148085
1268 5 4 38.6849 48.1525 27.9731 -0.000644057 -0.000446586 -0.00267714
45 1 1 37.9277 51.9994 27.5798 -0.00261014 -0.00608423 -0.00305649
1721 7 1 48.9014 45.1276 23.0875 0.00782855 0.00462502 -0.00553982
1425 6 3 50.9932 47.6938 27.2352 0.00397168 0.00218674 0.0051597
1036 4 1 51.1025 51.7341 24.1019 0.0050238 0.00172125 0.00199236
1051 4 4 47.9775 46.1375 28.5221 0.00111341 -0.00144941 0.00306762
1521 6 1 46.713 51.4557 25.0022 -0.00147722 0.00389386 -0.00133753
847 4 3 51.7366 45.6333 23.8937 0.00182703 -0.00216667 -0.00296694
1161 5 1 46.2275 51.208 27.8502 0.00416821 -0.0024696 -0.00630312
1116 4 2 57.5007 45.8122 25.6558 0 0 0
227 1 2 54.459 51.1465 25.3477 -0.0170408 0.0172914 0.0167451
1708 7 4 52.7648 45.1545 22.9445 0.00856554 0.00656819 -0.00286661
1031 4 1 53.6698 48.1644 23.1408 0.00707353 0.00111415 0.00105553
996 4 1 53.9772 47.4581 25.1816 0.0100269 0.00229804 -0.00107137
1629 6 1 53.7667 52.44 26.7232 0.00118986 0.00290678 0.00426128
2444 9 1 56.1828 48.4091 23.4955 -0.00752169 0.00273523 -0.00351421
2388 9 1 55.6457 50.894 23.0261 -0.00785931 0.00355198 0.000311228
1329 5 1 53.9385 46.1627 27.3565 0.00247619 -0.00308772 -0.000895381
1219 5 1 54.4465 46.9599 27.5705 0.00284941 0.00386517 -0.0045758
2720 10 4 6.67776 58.0137 26.4975 -0.00159729 -0.00334533 0.00635421
2680 10 1 2.79772 53.5214 26.5687 0 0 0
2675 10 1 6.47171 56.9571 26.9291 -0.00406132 -0.00519357 0.00444443
1025 4 1 3.53493 54.6996 26.23 -0.0120396 0.00383983 0.00262478
2366 9 1 13.3841 53.5761 28.3298 0.00161884 0.00285004 0.00486993
2371 9 1 12.2583 52.6602 24.577 0.000542537 0.00196206 0.00195921
2378 9 1 9.55714 55.6542 29.9605 -0.00156155 0.0033557 0.00375898
2148 8 1 14.3238 53.7145 28.5687 0.00342433 -0.00621819 0.00534947
2453 9 1 11.2189 59.4768 26.289 -0.00136365 0.00491191 -0.00187599
896 4 4 9.69211 57.4867 24.3559 -0.00656155 0.00354546 -0.00574445
2283 9 1 12.0697 54.4144 27.7577 -0.00722374 0.00319416 0.0011807
1919 7 2 21.7416 55.662 23.3572 0.0215747 0.00998678 -0.00448431
2267 9 1 20.2025 54.7265 28.0559 -0.000928211 0.000845789 0.00153798
1297 5 3 21.0342 56.8169 28.6997 -0.00375593 0.00294317 0.000529491
843 3 2 18.2636 54.4834 26.9957 0.00993265 -0.00819223 -0.0113897
2227 8 2 29.8133 54.1392 23.2675 0.0520785 -0.0105187 0.0300718
2623 10 1 27.6678 59.0925 23.1015 0.000966312 -0.00463821 0.0018578
1013 4 1 26.1063 54.2631 23.2212 -0.000250296 0.00421523 0.00142368
1560 6 1 27.1059 55.8301 26.626 -0.00305325 0.0100476 0.00049118
2600 10 1 29.6818 56.8708 29.6224 0.00560952 -0.00438849 0.00136734
2278 9 1 29.3101 56.8649 23.5686 0.000815624 0.00285956 -0.00083295
1431 6 1 30.1106 53.2837 23.9035 -0.00307574 0.00511508 0.00357221
978 4 1 36.5069 58.3275 26.5294 -0.000988833 0.006683 -0.000369823
2681 10 1 34.2952 54.0774 26.072 0.00738209 -0.00567905 0.00350002
2265 9 1 37.4137 55.2989 27.3757 0.0061471 0.000630777 0.0015515
865 4 1 30.967 52.8166 28.0443 -0.00303001 3.78416e-05 -0.00147588
467 2 1 30.065 52.6677 29.9178 -0.002174 -0.0118833 -0.00148687
2131 8 1 40.459 58.8512 26.9325 0.0121624 -0.0040175 0.0020342
2424 9 1 42.7456 57.8252 27.9385 0.00877224 0.00992288 -0.00160141
1254 5 4 43.3762 56.686 22.7658 -0.00147271 0.00378799 -0.00342247
1319 5 3 42.3937 56.4037 25.5128 0.000183092 0.00146308 -0.000521273
286 2 1 40.2476 55.9299 29.2985 0.00112543 -0.00743804 -0.0069038
2812 10 2 47.2758 53.576 25.7013 -0.0104665 -0.00753362 0.00781332
1616 6 1 49.0486 53.0842 26.2693 -0.000637756 0.00660687 0.00427812
1805 7 1 45.3826 53.6121 23.1808 0.00974663 -0.00892275 -0.00246008
1307 5 1 47.0765 55.3074 29.4025 0.00421821 0.00198415 0.00105418
1305 5 1 51.6717 55.8157 28.8853 0.00698029 0.00211948 0.00120694
855 4 1 45.5417 58.7541 29.0551 0.0004547 0.00235843 -0.00149557
1916 7 2 47.0205 53.0503 29.6373 -0.015749 -0.0135927 0.000621303
936 4 3 45.4037 54.0799 28.9739 0.00197187 0.00819438 -0.00263562
873 4 1 45.4344 55.4746 29.2852 0.00468855 0.000334635 -0.00206551
862 4 4 46.0894 54.6257 29.4757 0.00169895 0.000218265 -0.00174011
775 3 1 59.0716 56.189 23.2127 0 0 0
2309 9 1 59.8588 53.952 23.0224 0 0 0
2599 10 4 58.6706 58.2995 23.6288 0 0 0
2669 10 1 59.1555 55.7327 28.69 0 0 0
270 1 2 58.3941 53.2591 25.1186 0 0 0
1250 5 1 52.6542 56.1044 25.1911 0.00152207 0.00332816 -0.00360197
2034 8 4 1.36157 2.77695 33.3969 0 0 0
2452 9 1 2.19037 2.47218 37.0865 0 0 0
269 1 2 3.58794 4.25057 31.2471 -0.00995443 0.0180394 -0.00138236
2467 9 1 9.88676 7.33975 35.0086 -0.00134209 0.0054103 0.00352983
614 3 4 13.6423 5.19373 33.7811 0.00545534 -0.00407131 0.000944457
2027 8 1 10.4255 2.64888 35.8171 -0.000483016 -0.00698365 0.00222442
190 1 1 11.3382 4.89451 34.2389 -0.00584354 -0.0043754 -0.00296163
307 2 1 8.04006 6.48971 34.0587 0.00778042 -0.00349011 -0.00286491
1774 7 4 13.4048 4.98542 37.0157 -0.00444609 -0.00457783 -0.00315531
2605 10 1 21.6584 2.37166 30.1302 0.00141534 -0.00209333 0.0021141
1637 6 2 19.8332 6.38854 36.9155 0.0169785 0.0106334 0.00848579
2572 10 1 16.596 3.38586 36.2558 0.00389721 -0.00549125 0.00538392
17 1 4 16.356 5.04219 30.5364 -0.00705801 -0.00156112 -0.00661466
1155 5 1 19.5378 3.46658 34.4523 -0.00731208 0.00216703 -0.00323107
1826 7 3 15.8223 7.0216 30.3314 -0.00179866 -0.00673736 -0.00255064
2446 9 1 21.5343 1.15354 30.6111 0.00276932 0.00729982 -0.000697165
2522 9 2 22.8043 3.08029 34.6897 0.0239129 0.0119213 0.0257879
1922 7 2 29.3408 5.57837 36.7269 0.000678322 -0.0114819 0.0234484
51 1 1 24.4902 3.79751 37.245 -0.00813511 -0.0026314 0.0014884
1318 5 1 28.992 3.08405 36.4731 -0.00483078 0.00393042 0.00423045
2021 8 1 24.5122 7.14152 34.2569 0.00599646 -0.00572259 0.00173196
1912 7 1 35.639 0.19836 30.4819 0.0025884 -0.00829026 0.00241077
29 1 1 34.6312 2.38136 30.4468 -0.00158313 -0.00114186 -0.00418408
876 4 4 36.7697 5.42188 36.0673 0.000955489 0.00463275 0.00195972
44 1 1 35.4341 1.12615 34.6108 -0.00372755 -0.00239914 -0.000793263
481 2 1 35.8086 4.0097 35.6769 0.00127862 -0.00542972 -0.00125883
2266 9 1 30.9081 1.1108 31.4409 0.00424605 0.00365352 0.00257877
1482 6 4 30.1951 4.44874 33.4036 -0.000550356 0.0103727 0.000933027
1183 5 1 30.9172 1.57333 32.0756 -1.10717e-06 0.00575973 -0.00497734
1914 7 2 38.2735 5.89495 31.6149 -0.044139 -0.0537456 0.00365596
37 1 3 44.536 4.08168 33.9448 0.00103841 -0.000378128 -0.00155728
167 1 1 40.4466 6.59173 31.5753 0.00397586 -0.00450891 0.000509327
1263 5 1 40.9148 2.67478 34.3632 0.000117907 0.00671111 -0.000130702
1179 5 1 39.8316 0.828273 35.0083 0.00382502 0.00442331 -0.00354787
11 1 1 37.9082 4.60043 37.0315 0.00097326 -0.00133663 -0.00519381
1333 5 4 48.3526 5.52784 33.8906 0.000281046 0.00377314 0.00274063
49 1 1 46.1714 0.970089 36.8933 4.09479e-05 -0.00371596 0.00110572
1340 5 1 47.7269 3.66358 34.7628 -0.00187685 0.00278023 0.00197311
162 1 4 50.6387 5.28245 32.468 0.00589388 -0.00398822 0.000368788
571 3 1 50.7899 1.58169 31.3811 -0.00141364 -0.00516492 -0.00798715
840 3 2 47.7911 2.20966 32.6419 0.000904852 -0.00717174 -0.00694126
622 3 1 47.0557 7.48122 36.4055 -0.00357491 -0.00508191 0.00226899
603 3 4 57.8537 1.49107 36.4541 0 0 0
600 3 1 59.1241 5.38449 36.2702 0 0 0
801 3 2 53.2884 2.3602 36.762 -0.00198664 -0.00842672 0.00257839
1393 5 2 53.0369 4.25779 36.9317 -0.0144208 -0.0166477 0.00322109
2580 10 1 55.661 6.31899 32.0552 -0.00527119 -0.0037504 0.0022133
1104 4 2 3.435 10.6453 31.6145 0.0099912 0.0119489 0.00183578
2017 8 1 2.45864 9.86372 36.0648 0 0 0
1806 7 1 2.39455 10.7608 34.8533 0 0 0
169 1 3 4.27461 8.1217 32.1537 -0.0102378 -0.00350172 0.000465494
2125 8 1 10.4191 14.3534 31.8373 -0.000622771 0.000406571 0.00365411
781 3 1 9.69611 13.2689 35.3141 0.00618084 -0.000960429 -0.00812358
2587 10 1 18.5418 8.6796 36.2125 0.0029247 -0.000946161 0.00312541
1934 7 2 18.0407 11.4997 30.4829 -0.000920923 -0.00347211 -0.00571686
178 1 3 20.0105 12.7285 33.2073 -0.00297581 -0.00172781 -0.00112306
1906 7 3 19.5344 13.7241 35.82 -0.00160623 -0.00401277 0.005658
2817 10 2 16.0184 12.7283 36.6334 0.000518962 -0.0290379 0.0114822
115 1 1 20.1396 11.9581 37.4703 -0.00568096 -0.00369155 -0.00564506
2138 8 1 23.5534 13.2531 32.2113 0.00663134 0.00132766 0.00469134
2621 10 4 29.5495 10.4441 31.8978 0.00239178 0.000866859 0.00513232
1793 7 1 27.4725 12.9147 31.0434 0.0021698 0.000827067 -0.00137742
292 2 1 27.2392 9.40888 31.7961 -0.00476073 -0.00209645 -0.00515234
1849 7 1 22.5947 11.2332 33.4527 0.0033311 -0.00780911 -0.00450772
458 2 1 34.1313 11.1028 30.9027 -0.00146306 -0.00478528 0.00107109
182 1 4 31.698 8.18942 33.2121 0.000877598 -0.00385143 -0.00142035
175 1 1 31.6801 10.731 31.6367 0.00133683 -0.00301839 -0.000979707
170 1 4 36.835 11.9164 30.1877 0.0027152 -0.00284426 1.74984e-05
946 4 1 34.7837 12.0247 32.6057 -0.00400211 -0.00910093 -0.000903335
743 3 1 34.7652 11.9085 37.0853 -0.00288513 -0.00322821 -0.00144186
1302 5 1 38.7528 10.8648 30.7832 0.00273672 0.00789232 0.00179049
1289 5 1 41.1336 10.3991 35.8613 0.00475824 0.00892325 0.0017545
1641 6 2 39.1111 9.29222 34.0656 0.00462446 -0.0113219 0.00723025
1136 5 4 42.4736 11.8153 32.2979 -0.00296975 0.00643613 -0.00119286
320 2 4 41.3637 10.5197 32.8692 -0.00484012 -0.00286254 -0.00303393
141 1 1 42.1405 11.5753 36.9775 0.00169219 -0.00312509 -0.0009634
389 2 1 44.514 12.3598 37.4531 0.00443441 -0.00596848 -0.00585275
2517 9 2 46.3123 14.3661 30.1002 0.00915052 -0.00800238 0.0266657
1067 4 1 48.9684 10.2267 33.168 -0.000855437 0.00830589 0.000783602
301 2 1 45.334 8.07943 33.6987 0.000572802 -0.00302143 -0.0033349
306 2 3 46.334 9.78827 35.945 -0.000408394 -0.00217109 -0.0018812
1595 6 1 45.6365 12.9476 33.878 0.000814589 -0.00630134 0.00576199
1115 4 2 58.9565 10.5129 34.7749 0 0 0
60 1 4 56.2717 7.91718 34.307 0.0033915 -0.00250713 -0.000256809
590 3 1 52.5224 12.8794 35.6208 -0.000847021 0.000832578 -0.00211366
623 3 3 53.5515 13.7213 30.857 -0.00135862 -0.00296468 -2.36129e-05
1403 5 2 53.9673 7.56653 32.1827 0.00357334 0.00462101 -0.0462577
2567 10 1 2.65477 17.2251 31.094 0 0 0
1990 8 4 0.0344758 20.9812 33.3674 0 0 0
596 3 1 6.496 15.3059 31.3506 0.0046456 0.00182634 -0.00281974
2564 10 1 1.35489 17.9627 32.922 0 0 0
2018 8 1 2.19085 19.9815 36.7156 0 0 0
183 1 1 2.7406 18.2822 32.0351 0 0 0
1740 7 1 2.51176 22.1491 35.3867 0 0 0
2590 10 4 12.3267 20.1468 30.7817 0.00152907 0.00374353 0.00177789
1404 5 2 13.9773 20.5455 33.8816 -0.0129247 0.0114594 0.00233825
620 3 1 8.82034 22.3097 35.4207 0.00490294 0.00134588 0.00194708
683 3 1 9.43626 20.5934 30.7175 0.00733731 -0.00185263 -0.00820181
1775 7 4 8.89074 15.8131 31.7942 -0.0046201 -0.000744742 -0.00459671
1779 7 1 14.4833 17.2178 33.8524 -0.00309148 0.00096793 -0.00271664
2511 9 2 11.0445 17.8914 33.5674 -0.00232861 -0.0110638 0.00443777
932 4 1 14.3179 21.7577 33.449 -0.00899283 -0.00476811 -0.00113602
2715 10 1 21.0275 15.0862 31.914 0.00508178 0.00412568 0.0087548
2198 8 2 17.4298 19.4003 33.092 0.0267671 -0.00292787 0.00887562
186 1 1 21.307 21.0994 36.3072 -0.0017912 0.00200296 -0.00111951
139 1 1 22.0878 15.0745 36.8716 -0.00590209 -0.000935006 -0.00139574
1354 5 2 27.4269 17.0291 30.5654 0.01751 0.00685843 -0.00389025
2130 8 3 24.216 15.637 37.3699 0.00566759 0.00218199 0.00602837
43 1 1 26.5414 15.7384 32.6991 -0.00677184 0.00375496 -0.000797561
1910 7 1 29.7246 16.7784 36.2764 0.000214653 -0.00208704 0.00436936
164 1 1 27.5623 18.5162 31.9035 -0.00223986 0.00118646 0.000553795
1701 7 1 29.449 20.6101 32.0504 -0.000362411 -0.00245957 0.00159974
734 3 4 28.5545 18.4333 34.9864 -0.004761 -0.0012971 0.00046737
741 3 1 29.3558 18.708 30.1896 -0.00445928 -0.000324404 -0.00342175
2635 10 1 36.5813 16.164 31.0537 0.00279333 0.00106922 0.00676108
2105 8 1 30.6911 17.8426 37.3747 0.00623323 -0.000896979 0.00920788
142 1 1 35.9456 20.2951 30.5996 -0.000410542 0.00145083 -0.00343215
737 3 1 33.0973 16.894 36.8376 -0.00303626 -0.00155799 6.14564e-05
739 3 1 35.76 18.3261 34.1771 -0.00195041 -0.000966762 -0.00155876
698 3 3 32.2003 18.1857 34.2452 -0.00751629 -0.00181853 -0.00334352
451 2 3 36.8433 18.9995 31.6111 -0.00134626 -0.0026958 0.00174603
1128 4 2 33.1304 17.4717 34.2206 -0.00696662 0.0116283 -0.0235114
25 1 1 40.2806 15.2107 34.6268 0.000468621 0.00417387 -0.00335329
482 2 3 40.5148 16.2586 31.1476 0.00325674 -0.000250552 -0.00356456
435 2 1 42.1512 17.9378 32.36 -0.00135273 -0.0043017 -0.000202786
299 2 4 40.6707 15.909 31.0186 -9.77068e-05 0.000313619 -0.00449737
822 3 2 39.8475 20.7779 34.0427 -0.0040086 -0.00154484 -0.00405011
1824 7 1 42.5373 20.8033 31.1103 -0.0147927 -0.000615486 -0.00152709
1079 4 2 42.2429 17.5096 34.8903 0.00680794 -0.0136522 -0.0241119
2231 8 2 50.533 16.4953 30.732 -0.00956201 -0.0016331 0.00627159
445 2 1 47.909 16.9571 31.9351 0.00227318 -0.00467716 0.00163164
612 3 1 45.5295 15.433 33.9533 -0.0044414 5.56153e-05 0.0011325
455 2 1 46.4279 21.9547 31.4969 0.00335918 -0.00155492 0.00123355
121 1 1 48.7049 15.0951 35.2302 0.00593875 -0.00192834 -0.00575872
61 1 4 54.6825 16.0524 36.0044 0.00437821 0.000600154 0.00123696
20 1 1 53.5513 18.3122 33.5118 0.00686452 0.00511327 -0.00518128
2685 10 3 55.1673 19.7944 33.7566 -0.00770469 0.00513937 0.00611384
750 3 1 58.7905 20.0062 30.8461 0 0 0
2573 10 1 53.4057 18.5979 33.8471 -0.00560054 0.000324347 0.00360604
313 2 1 58.0347 20.8091 31.681 0 0 0
647 3 4 55.7036 16.2129 33.6765 0.000143458 -0.00544203 -0.0021614
1681 6 2 55.563 22.0365 35.3742 0.00492839 -0.00289941 0.00602526
1856 7 1 55.986 20.0207 34.8396 -0.00750999 -0.00538494 -0.00308257
353 2 1 55.0982 17.4445 36.7657 0.00330448 -0.00628941 -0.00239494
1803 7 1 1.71544 22.9033 30.2018 0 0 0
321 2 4 3.80537 23.8318 30.47 0.00505895 0.00201191 -0.00248759
624 3 4 4.34717 23.6046 35.7156 0.00203647 0.00103584 0.00186224
2020 8 3 3.04239 28.0182 34.6386 -0.00212784 0.00270127 0.00216024
629 3 1 2.96315 26.4085 36.339 0 0 0
773 3 1 2.36149 29.3017 34.3872 0 0 0
632 3 3 7.52674 29.3104 34.1114 0.0042707 0.00134816 7.65665e-05
1890 7 1 10.4087 28.2998 35.3917 -0.00286131 0.00081392 0.00307709
2225 8 2 9.70906 27.6639 33.2265 -0.00587037 0.000974341 -0.0143794
814 3 2 20.1488 27.8676 31.3335 -0.0137077 -0.00122818 0.0403534
1830 7 4 20.7294 22.5101 32.5494 0.000495768 0.00018563 -0.00213624
1807 7 1 16.6459 25.1525 33.0181 -0.00185125 0.00315099 0.00143045
1813 7 1 18.5372 27.3617 32.4894 -0.000946711 0.00315309 0.000889344
1829 7 1 21.8803 24.5152 34.563 0.000836113 0.000150483 -0.00172921
1776 7 1 20.0133 28.8683 32.667 -0.00100267 0.0053029 -0.0040992
1500 6 3 19.0936 25.6636 34.1042 -0.00942055 -0.00633938 -9.15094e-05
557 2 2 28.2314 29.1752 30.9702 -0.00199863 0.00533808 0.0213001
2738 10 3 23.8458 25.9736 30.8369 0.00444911 0.00363825 0.01021
1000 4 1 26.5775 26.6009 30.4456 -0.000412581 -0.00580883 0.00181703
1873 7 1 23.668 26.1369 32.0618 0.0039332 -0.00157565 -0.000674888
2315 9 3 23.8635 27.7999 33.8583 -0.00164818 -0.00245483 0.00620332
2413 9 1 29.0807 22.7256 32.4273 0.00308748 -0.00312336 0.00204374
447 2 1 28.385 24.6866 30.874 -0.005336 -0.00108896 0.00137838
1862 7 4 25.8559 29.5376 33.5098 0.00617598 -0.00107096 -0.00313369
1751 7 3 26.2702 24.6528 36.1245 0.000592474 -0.00116206 -0.00498381
1119 4 2 29.8294 28.5206 37.1459 -0.00419986 -0.00836617 -0.017258
2303 9 1 36.5925 28.0325 31.5219 0.0016498 -0.00371941 0.00461117
555 2 2 30.5413 28.9613 34.1919 0.0227025 0.0287617 -0.000590036
171 1 4 36.3947 28.3346 34.3064 0.00233668 0.00543185 0.00106895
143 1 1 36.1883 28.686 30.7073 -0.000733883 0.00401559 -0.0029967
700 3 1 33.4792 28.2899 35.949 -0.0069487 0.00265674 -0.00234041
676 3 3 36.7609 24.7624 32.4118 -0.00682564 -0.000916643 -0.00811889
1194 5 1 33.9194 28.0211 36.4313 2.57723e-05 -0.00620517 -0.00189306
1730 7 4 31.1609 25.4101 36.6903 -0.000495232 -0.00321555 -0.00169986
1811 7 1 38.494 23.3201 32.2997 0.00724919 0.00199324 0.00106346
1781 7 1 37.5133 24.2867 35.0605 0.00588134 0.00428268 -0.0023698
1712 7 1 40.2162 22.8668 35.5861 0.00400369 -0.00329569 0.00161365
160 1 4 39.5384 25.6339 32.9963 0.00159415 0.00243397 0.0011665
469 2 1 39.3598 28.7914 32.9087 0.00185031 0.00299896 -0.000466929
1272 5 1 43.551 25.5919 33.7116 0.00274119 -0.00850604 -0.000671358
394 2 3 43.1535 26.9933 31.9639 0.0042286 0.00083652 -0.00695244
102 1 1 38.2364 28.8475 32.4212 -0.00125024 0.00173699 -0.0079811
1612 6 1 44.1146 24.4111 33.7314 -0.00242615 -0.00434235 0.00729297
639 3 1 41.8293 25.5116 33.7501 -0.00673748 -0.00099418 -0.00101077
1313 5 1 37.692 25.0248 32.4973 -0.000499216 -0.0103053 0.00207171
1491 6 3 43.5976 28.8777 33.3215 0.00232424 -0.00394932 8.61364e-06
390 2 1 44.2095 27.6696 34.441 0.00450698 -0.000340148 -0.00625041
177 1 1 45.556 23.556 35.7646 0.00714559 0.00256558 0.000467439
727 3 1 50.4274 22.7388 31.2823 0.00298498 0.000480713 -0.000369096
606 3 1 47.5032 25.6389 34.1902 -0.00441832 0.00521034 -0.000108716
135 1 1 48.9892 28.1909 32.1759 0.0048229 0.00361357 -0.00381605
326 2 1 46.1238 27.8269 32.2458 -0.00318969 0.00240477 -0.00272889
701 3 1 52.0263 23.6791 33.373 0.000390534 0.000113234 -0.00282959
702 3 4 49.0667 28.9117 34.0907 -0.000890911 0.00156989 -0.00321973
356 2 4 51.411 25.2892 35.1325 0.00218641 -0.00289474 -0.00174461
503 2 1 48.2526 23.1201 34.2103 0.00555903 0.00355165 -0.00661026
2176 8 1 53.6173 26.1087 33.1361 -0.0066547 0.00179027 0.0112532
454 2 1 52.5073 28.2572 30.8255 0.00542412 0.00125209 0.0012838
1720 7 4 55.5875 25.2018 32.833 0.00944939 -0.00273007 -0.00100842
1493 6 4 54.9263 28.5485 37.3584 0.00656694 -0.00323379 0.00187016
1362 5 2 2.76874 35.9095 31.706 0 0 0
1632 6 2 5.90298 32.137 34.3884 0.00563799 0.0182548 0.00678015
659 3 1 1.05873 36.2423 33.7183 0 0 0
2466 9 1 6.48695 32.5263 31.8661 -0.00263962 -0.00826946 0.00142205
628 3 1 0.310743 35.7845 32.4359 0 0 0
343 2 4 1.91738 35.2796 35.7854 0 0 0
545 2 2 1.41483 33.4484 32.4153 0 0 0
268 1 2 6.31048 34.4005 35.1586 -0.00867381 -0.0162846 -0.0226885
2359 9 3 9.3677 33.4798 31.8931 -0.000317318 -0.00492768 0.00771806
264 1 2 7.76194 32.1231 36.4519 0.0127012 0.0289657 0.00158995
1524 6 1 9.09408 31.2963 32.9534 0.00786323 -0.00422426 0.00274255
1875 7 1 8.07067 35.4176 37.3275 -0.00208333 0.00174906 0.0017602
2433 9 1 13.5316 37.2458 36.4715 -0.00137737 0.000525918 0.00146418
2462 9 1 13.2083 31.4319 33.5267 -6.30783e-05 -0.00783083 0.00173706
1853 7 1 12.9012 36.0316 33.5825 -0.000781906 0.00138663 -0.00400498
2443 9 1 10.6556 37.4159 32.4811 -0.00179217 -0.00155042 0.000621231
2809 10 2 19.904 31.6252 31.6673 0.00324482 0.00912768 0.00884452
1464 6 1 21.0146 34.0682 33.1943 -0.00251616 -0.000560302 0.00406291
934 4 1 21.2127 33.3959 32.4754 -0.00677731 2.79553e-05 -0.00155662
293 2 1 21.9931 31.9373 37.1915 -0.00773435 0.0072321 -0.00329698
2772 10 2 19.0175 36.1603 31.8058 -0.020573 -0.0154303 -0.0222885
1544 6 3 26.3761 36.9863 33.0913 -0.00593355 0.00069732 0.00356614
980 4 3 24.012 34.8759 30.7039 -0.00513441 -0.00305086 0.000940742
1818 7 4 27.4332 32.8363 31.8937 0.00336928 0.00486574 0.000373468
1851 7 1 27.8402 34.2554 32.6512 0.00563329 0.000960553 -0.00456231
2427 9 4 26.9842 30.6528 31.7888 0.00225688 -0.0013853 -0.000194478
431 2 4 24.7551 34.6476 33.93 -0.00771118 0.00340304 -0.000668007
412 2 1 26.5856 36.3636 33.1475 -0.00386416 0.00458063 -0.00360898
518 2 2 24.9475 30.9317 32.1397 0.0131222 0.0258023 -0.0253217
361 2 1 23.9083 33.4816 36.201 -0.00824108 -8.97725e-05 -0.00375761
510 2 2 32.4183 34.3084 31.8372 -0.0297271 -0.0154714 0.0199277
2523 9 2 33.787 30.2358 36.306 0.00667882 -0.00109206 0.0260472
1474 6 1 33.4572 31.9779 30.2812 0.00117849 -0.00140325 0.00120966
2412 9 3 30.8307 33.3901 31.8754 0.00345549 0.000790044 0.00207457
468 2 1 33.9642 33.5265 35.1789 -0.000134311 0.00521219 0.00135117
2423 9 1 34.2295 30.4879 32.1095 0.005957 -0.000394023 0.000198987
453 2 4 34.1355 34.2231 36.1672 -0.002983 0.00408043 0.0032805
928 4 4 32.8449 30.2961 33.9392 -0.000711652 -0.00201716 -0.00142753
950 4 4 33.0348 36.6795 35.275 -0.00519047 0.00144661 0.00124921
1259 5 1 30.2642 31.7606 34.0413 -0.00518072 -0.00671217 -0.000268676
642 3 1 37.2833 36.1041 31.0853 -0.00776787 0.00290804 -0.00254469
808 3 2 36.6964 35.0607 34.4051 -0.00915104 0.00135707 -0.00221154
2816 10 2 33.8186 34.8789 35.8571 0.00866144 -0.018138 -0.0108052
329 2 1 42.1266 32.2151 36.5835 -0.00510456 0.00303245 -0.000705817
441 2 1 39.5518 31.1509 36.1272 -0.00152167 0.00102158 0.00297449
1211 5 4 37.8394 36.3003 30.7485 -0.000988238 -0.00108189 -0.00305739
358 2 1 38.6845 34.4789 32.7415 -0.00232579 0.00047757 -0.00372582
852 4 4 37.516 32.5771 35.6662 -0.00391158 -0.00781596 0.000922879
755 3 3 39.7313 34.4332 31.7436 -0.00136708 0.00630087 -0.00583777
1608 6 1 44.9702 36.8005 34.5995 -0.00141673 0.00140262 0.00661541
2814 10 2 41.0313 32.2599 31.8069 -0.0132783 0.031038 -0.0135212
686 3 1 38.9364 33.0034 35.4135 -0.00544505 0.00375298 -0.00587342
1203 5 1 41.3273 31.1237 37.2205 0.0012669 -0.0034613 -0.002119
1418 6 4 51.9165 30.8755 31.7267 0.00178942 -0.00453621 0.00619227
1668 6 2 51.907 30.271 34.7493 0.00334399 0.0222664 0.00374412
148 1 4 51.6387 30.4829 30.1751 0.00514106 0.00412197 -0.00256634
1499 6 1 49.0865 31.3794 34.9986 0.00305261 -0.00373825 0.000325847
365 2 4 47.4648 34.3107 30.917 0.00224391 0.000287472 -0.00503078
1339 5 1 50.8366 31.669 36.3359 -0.000571765 -0.00940839 0.00198914
675 3 1 51.7221 34.523 36.1283 -0.00110797 0.00247561 -0.00659626
318 2 1 56.0713 31.2811 35.257 0.00182332 0.00523724 -0.000989197
1918 7 2 58.9308 33.6907 33.2768 0 0 0
660 3 4 55.4001 35.9464 37.1548 -0.00180755 0.00237977 -0.00313126
1522 6 3 3.41891 42.7169 31.7557 0.00522116 0.000546774 0.00192269
1864 7 1 0.899078 41.8298 36.3928 0 0 0
538 2 2 4.90986 42.0006 35.0683 -0.0121717 0.00661143 -0.00290907
661 3 1 1.98329 43.8388 37.4809 0 0 0
948 4 1 8.64286 41.3497 32.785 0.00912554 0.00231387 -0.000654394
1432 6 1 10.6772 41.3078 35.2879 -0.0107419 -0.000273261 0.00887875
1257 5 1 7.83686 44.1305 33.9062 0.00930874 -0.0018582 -0.000202725
1757 7 1 10.2308 44.2111 36.829 -0.00542968 0.00810166 -0.0048408
2381 9 3 16.1266 40.497 31.459 0.000761848 -0.00203721 0.00383759
2416 9 4 19.9419 38.466 37.0088 -0.000247648 0.00348081 0.00411512
1885 7 4 18.5058 40.4379 32.3512 0.0015459 0.00398717 0.00143728
2407 9 1 16.6534 43.6532 34.7671 -0.00239625 0.00396367 0.00437723
2398 9 1 17.6076 38.7743 35.9867 -0.00105898 -2.0696e-05 0.00502708
1163 5 1 18.2573 38.7284 33.2752 -0.00667467 -0.00724625 -0.00450792
1737 7 1 22.4821 39.4248 31.691 -0.00272518 0.00255153 -0.0054532
1131 5 1 17.2268 42.8949 33.3076 0.0106763 -0.00561405 -0.00203057
1287 5 1 17.519 44.8948 33.7835 -0.00461799 -0.000798486 0.00119339
514 2 2 16.149 43.7005 31.7733 -0.0148652 -0.0146214 -0.00340867
1454 6 1 27.698 43.2656 30.811 1.84054e-05 0.00142065 0.00462958
2299 9 1 27.5043 41.9568 30.5126 -0.00229666 0.00118394 0.00290304
405 2 1 25.5669 40.9791 34.4639 -0.00347963 0.00698965 -0.00381564
1709 7 4 25.2533 44.8448 31.9475 -0.000617869 0.00630671 0.000725788
920 4 4 27.1358 39.5816 36.8938 -0.000985679 0.000606632 0.00162273
1286 5 1 25.0719 41.9455 32.6141 -0.00184724 -0.00232979 -4.83667e-05
2268 9 1 23.3978 42.0378 36.4428 0.000686701 -0.00389247 0.00460794
1507 6 1 27.199 42.9989 36.579 -0.00762242 0.000561555 0.000857197
1164 5 1 27.8191 44.8836 34.2833 -0.00248235 -0.00465138 -0.00332989
2475 9 1 34.8727 43.116 31.4963 0.00774268 -0.00548601 0.00331853
85 1 1 36.2696 40.2851 30.7503 -0.00294896 0.00649605 -0.00534509
1377 5 2 34.8084 42.3411 37.0086 0.0163401 8.52275e-05 -0.000206966
1040 4 1 36.2987 42.9113 32.4847 -0.00169892 -0.00175989 0.00473467
2392 9 1 36.8745 40.186 34.6268 0.00728382 -0.000232808 0.0046183
1008 4 4 31.7311 39.685 35.1834 0.00221205 -0.00208239 0.00381338
1280 5 1 36.9345 41.3437 32.1781 0.00153902 -0.00140453 -0.000645574
1294 5 1 32.8173 37.6605 33.5324 0.00133771 -0.00462739 0.00164896
1277 5 4 36.6086 39.9868 33.6554 0.000767059 -0.00323086 -0.000699031
1266 5 4 35.2399 44.5674 31.6604 -0.00240363 -9.74351e-05 -0.00116782
2259 9 1 33.1785 39.0137 34.8273 0.00533179 -0.00633654 0.00475771
1726 7 1 35.6795 43.5012 36.6066 0.00246419 0.00372769 -0.00104417
956 4 1 36.9168 41.0653 33.8768 -0.00398727 0.00167331 0.00148553
1503 6 1 35.9536 38.7408 35.3115 -0.00356696 -0.00123807 0.000369416
1038 4 4 32.6521 44.9102 32.3435 -0.00238555 -0.000256736 0.00415979
513 2 2 32.913 38.3495 35.9497 -0.0323392 -0.0163918 -6.41121e-05
155 1 1 42.6234 41.1429 33.7201 0.00222855 0.00931154 0.000689626
1117 4 2 40.694 44.322 35.1413 0.0019144 -0.000169986 0.0055057
439 2 1 44.4444 44.924 33.1166 0.00028374 0.006174 0.00137584
1479 6 1 42.88 37.8975 34.2311 0.00418158 0.000122184 0.00126242
1504 6 4 41.5574 41.0432 36.5674 -0.000952249 0.000413276 0.000418542
1050 4 4 43.5829 43.8905 37.0152 -0.000194835 -0.0012882 0.00505247
2224 8 2 51.6484 40.1889 34.389 0.0103742 -0.0162357 0.00940119
414 2 1 50.8716 38.0686 30.0915 0.00546425 0.00504505 -0.00449022
705 3 1 51.7374 40.973 34.6748 0.00028215 0.00673561 -0.00182926
1244 5 4 45.7912 44.2716 34.1029 -0.00245994 -9.45455e-05 0.000830762
1512 6 1 51.1754 44.4842 36.8287 0.00149897 0.000358885 0.00203226
1515 6 4 48.6581 37.7131 30.798 0.000573239 -0.00263794 2.67985e-05
1332 5 4 45.7173 44.6937 36.1069 -0.000631462 -0.00330013 0.00231878
1964 7 2 51.171 42.1228 33.2269 -0.0087732 -0.0198825 0.000935169
80 1 1 48.2271 42.9641 36.6454 0.00160845 0.00780645 -0.00181025
1392 5 2 57.6728 43.5526 31.6576 0 0 0
789 3 2 53.0928 39.738 33.955 -0.000393665 0.0344304 0.0195292
1865 7 1 59.4743 39.6298 35.2632 0 0 0
1882 7 1 59.775 42.2264 33.3476 0 0 0
77 1 1 53.7325 41.3586 32.9605 0.00310258 0.00763543 -0.0030386
1265 5 1 55.4016 41.7941 32.1869 0.00644944 -0.00168158 -0.00112003
417 2 1 55.7462 44.2854 33.281 0.00640129 0.00699774 -0.00278319
1248 5 1 57.4384 41.7812 34.7491 0 0 0
2205 8 2 57.2404 40.6157 36.8785 0 0 0
1223 5 1 53.4047 39.954 37.0242 0.00188866 0.000464418 -0.00115473
2122 8 4 5.47413 51.636 35.4065 -0.00408635 -0.00880922 0.0058582
1994 8 1 10.2815 51.2822 32.1341 0.0013018 0.00909407 0.00638764
225 1 2 9.96652 45.8322 32.9404 0.0375642 0.0148169 -0.00503743
2276 9 1 9.02706 52.1509 32.0252 -0.00685598 0.000631543 0.00258567
2448 9 4 10.8757 46.0095 31.9381 -0.00162573 0.0013678 0.00117804
2471 9 4 13.6539 46.3847 30.7323 0.000437577 -0.00358214 0.00064291
2468 9 1 10.0398 47.7425 37.0376 -0.00112009 -0.00272381 0.00354224
2270 9 1 9.82368 45.5362 36.9178 -0.00506133 -0.00208792 0.00459674
1718 7 1 19.964 47.6405 35.354 -0.00352999 0.00580139 -0.000156803
916 4 1 21.8855 45.8368 34.0622 -0.00321259 0.00319351 9.6693e-06
2320 9 1 21.648 50.1028 34.874 -0.00156198 0.00631233 0.006584
911 4 1 15.1443 51.3478 33.218 -0.0048323 0.0047767 -0.00113599
874 4 4 21.1137 49.0183 35.9135 -0.00590054 -0.00236308 0.000231012
2367 9 1 25.1833 50.2281 33.3152 0.00617533 0.000974452 0.00681007
1017 4 4 28.3371 48.2863 33.7288 0.000285231 0.000604535 0.00516272
2282 9 1 26.6627 50.5857 32.3215 -0.000672132 0.00173509 0.00248459
2405 9 4 28.0387 49.865 36.4109 0.00237786 0.0052844 0.00479675
931 4 1 26.2162 48.1976 34.4346 -0.00441992 0.00527584 5.02317e-05
372 2 3 26.8027 50.4387 33.3662 -0.00503051 0.00691867 -0.00649392
2535 9 2 31.1189 46.9918 36.9026 0.00574235 -0.00360087 0.0288638
976 4 1 32.3094 45.0295 32.1383 -0.00322506 0.00134299 0.00191693
1003 4 1 36.1221 49.7789 31.5245 0.00425844 0.00310234 0.00300342
1494 6 1 35.6917 48.2628 36.0676 -0.00134092 0.00355633 0.000967052
1789 7 1 35.6078 49.46 34.0543 0.0054731 -0.0085708 -0.0011811
2803 10 2 44.9434 47.4223 33.6825 -0.00998785 0.0189141 0.00716661
829 3 2 41.5013 51.3462 30.7631 -0.000433473 0.0115189 -0.000555955
1316 5 1 38.8106 49.7567 32.7289 -0.000416972 -0.00113532 0.00271115
988 4 1 40.4272 49.9166 36.3696 0.00281007 0.00251825 0.00316063
1285 5 1 43.9802 46.6965 30.6437 0.00583089 0.000319815 -0.0004217
1327 5 1 41.7887 49.207 35.4156 -0.00161451 -0.00192041 0.00296542
1264 5 1 42.5013 49.0158 32.5339 0.000930118 0.00039993 -0.000894029
870 4 3 43.5592 47.5425 32.7494 0.00322166 -0.00275738 -0.000140248
433 2 1 41.9586 48.1572 30.6919 -0.00133497 -0.0161455 -0.00141764
888 4 1 46.2521 50.3309 33.6364 0.00703965 -0.000542825 -0.00133424
1212 5 1 46.7648 48.4674 35.5724 0.00173671 0.00402255 -0.00191824
333 2 1 54.4683 46.7647 30.4008 0.000324939 0.00844387 -0.0025669
2465 9 1 58.6091 52.4006 35.3635 0 0 0
1315 5 1 57.5902 46.5356 34.8739 0 0 0
857 4 1 56.3691 49.5417 35.8586 0.00529645 -0.00136571 0.00145505
1517 6 1 56.687 46.7341 37.2306 0.0026972 0.00130883 0.00289665
1405 5 2 59.5893 49.0643 35.8723 0 0 0
909 4 1 5.78383 54.3353 31.5368 -0.00823407 0.00553092 -0.0018589
1338 5 1 0.110893 59.5085 36.0043 0 0 0
1132 5 1 11.4882 58.8349 35.3847 0.0086441 0.00103795 -0.000417734
2456 9 3 10.4242 57.8958 36.3487 -0.00131714 0.0036419 0.00281029
1496 6 1 11.1732 59.674 33.8828 -0.0111783 0.0077476 -0.000329699
2592 10 1 18.3085 58.4059 30.1649 0.00293378 -0.00430885 0.00132835
2509 9 2 16.1071 59.3112 30.9909 0.00235525 0.00514286 0.00388078
1386 5 2 18.3968 53.9249 31.5267 -0.00973728 0.0272672 -0.000512115
1239 5 1 15.1387 52.6836 33.4991 0.00900066 0.00364345 -0.000493158
1548 6 4 21.1776 53.5831 36.4694 -0.00806015 0.00743846 0.00399536
472 2 1 19.9575 53.6569 32.9085 -0.00542299 -0.010316 -0.00043461
1456 6 3 23.2754 54.1376 32.6714 -0.00130142 0.00649623 0.00488096
1942 7 2 26.8898 54.3195 36.5325 0.00252752 -0.0073122 0.0014098
39 1 4 26.177 56.3718 31.5514 -0.00555401 -0.00384526 -0.00212944
130 1 1 26.3321 59.6026 37.1898 -0.00331396 -0.00801817 -0.00330087
541 2 2 34.77 56.0672 35.022 -0.00246398 -0.0132503 0.0223552
2787 10 2 35.4519 59.8578 33.6153 0.0268623 0.0164359 0.00902851
742 3 3 36.3029 57.0535 31.6462 -0.00182445 -0.00895261 -0.00339673
1224 5 4 34.1352 54.3976 36.0615 -0.00518993 0.00589543 -0.00214062
887 4 1 33.4421 58.1416 31.9001 0.00254084 0.00218903 -0.00140314
851 4 1 32.9159 53.9738 36.4835 -0.00497286 0.000733505 0.00177581
1416 6 4 42.4658 53.853 32.9947 -0.00143688 0.00295 0.00703467
1823 7 1 38.4028 57.018 35.6438 0.0067499 -0.0106456 0.000435925
1801 7 1 40.5993 54.5514 37.2104 0.00693973 -0.00740664 0.00278254
1326 5 1 37.7643 53.0162 31.0166 -0.00310908 0.000147673 0.00127546
56 1 1 43.6403 55.5981 35.5901 -0.000597464 -0.00685118 0.000900846
984 4 4 40.6454 57.5446 32.3739 0.00159695 0.00693344 0.00148317
1061 4 4 41.3063 54.3187 36.0149 -0.00357787 0.00129667 0.00501797
863 4 4 43.7751 53.7345 34.3542 0.00118402 0.000601807 0.00183008
853 4 1 44.3812 58.5668 30.2448 -0.000263911 0.00279672 -0.000225293
19 1 1 42.2129 52.9063 31.009 0.00237234 -0.00593106 -0.005786
1138 5 1 44.0048 53.8519 33.1138 -0.00135766 -0.00115403 -0.00143287
2490 9 2 39.3525 54.6353 32.3064 -0.0211582 -0.0421711 -0.0191466
1045 4 1 48.7755 57.7914 31.4179 0.00229498 0.00391737 0.00385436
2029 8 1 45.3373 55.7993 30.5539 -0.0107447 -0.00923908 0.00029116
961 4 1 49.2872 53.8965 31.261 0.0011113 0.00533382 0.00111881
970 4 1 46.9026 54.4352 33.1275 0.00146144 0.00461567 0.00159579
975 4 1 51.3942 55.9472 32.2082 0.0044049 0.00486288 0.00147848
1153 5 1 51.2063 57.1812 34.383 0.0048201 -0.000441911 -0.00315879
736 3 1 54.2605 56.9465 33.5309 0.00547141 -0.00906421 -0.000956433
1644 6 2 57.1409 56.2734 35.4085 0 0 0
1255 5 4 53.0002 54.5557 36.0907 0.00232446 0.0024531 0.000152281
1321 5 4 55.5987 56.8782 36.4051 0.00569907 0.00107329 0.00452044
1253 5 3 54.3873 57.5565 31.3326 0.00306691 0.00383018 -0.00086177
1347 5 1 54.1284 57.3608 33.1478 -8.2253e-05 0.000468324 -0.000978883
1927 7 2 54.4854 52.8676 35.5939 -0.0136926 0.00959104 -0.00518244
2794 10 2 5.23622 2.94447 40.9535 0.0184241 -0.00388021 0.0121326
2451 9 1 4.89019 0.475074 38.7206 -0.00397152 0.00583643 0.00291706
2625 10 1 3.88686 6.63589 44.1802 -0.00890365 -0.00190764 0.0106069
2209 8 2 13.9199 2.20027 40.1219 0.000673579 -0.00748189 0.00377915
599 3 1 13.465 4.36734 40.1951 0.00621 -0.00246506 0.00143763
2033 8 3 13.9735 4.56284 43.4607 0.000132612 -0.00513326 0.00579748
2807 10 2 11.3367 2.76407 37.7163 0.000433862 -0.000415973 -0.0129455
1889 7 1 13.2825 6.73774 41.3726 -0.00194099 -0.0087005 0.00577386
1180 5 4 14.262 0.0376642 40.6363 -0.0063352 0.00330227 -0.00082907
824 3 2 8.43789 5.51058 39.8015 0.03117 -0.0298774 -0.0238106
2538 9 2 21.5524 5.29879 39.659 0.00225776 0.00359431 0.0319204
2414 9 1 19.3254 7.25114 38.4094 -0.00140025 -0.00993074 0.00428538
300 2 1 18.4983 4.61171 37.6974 -0.0100971 -0.00393212 -0.00202663
1790 7 1 29.4411 3.83093 42.5717 0.00196365 -0.00329763 0.00234868
1384 5 2 28.0959 1.71622 40.8044 0.0171967 0.00624449 -0.0206247
2052 8 1 36.8326 4.19339 38.3718 0.00599662 -0.00509304 0.00611354
496 2 3 36.9392 4.43327 43.3253 0.00233046 -0.00373349 -0.000989462
296 2 1 34.8376 5.35518 38.5812 -0.00258816 -0.00370993 -0.00190914
304 2 1 35.7395 6.10238 37.7384 -0.00408261 -0.00304985 -0.00171142
780 3 2 44.5599 5.84504 40.7974 -0.0262088 -0.0283548 0.0172718
889 4 1 43.7913 4.55288 38.0109 0.00704812 0.00516235 0.000929148
1150 5 1 43.8215 4.29447 38.8663 0.00086781 0.00204779 -0.000694279
1152 5 3 37.8364 4.90576 38.1021 -0.000629428 0.0026799 -0.00113756
440 2 1 44.1639 5.2805 40.7467 -0.000212038 -0.008933 0.00423506
726 3 4 38.9426 6.2006 40.9061 -0.00324695 -0.00525096 0.00330725
78 1 1 42.5687 7.12588 37.6194 -0.000855319 -0.00621365 -0.00101424
1125 4 2 43.1693 0.646176 42.4491 -0.00235507 0.00364407 0.00520285
16 1 4 45.1694 5.91983 43.266 0.00326497 -0.000161268 -0.00241081
42 1 1 46.463 3.78015 44.2657 0.000983617 -0.00100914 0.0027319
470 2 1 48.6477 2.2684 40.9764 0.00579787 -0.00724704 0.00311095
71 1 1 48.9823 2.45676 44.1775 0.00113373 -0.0073665 0.00221261
1251 5 1 50.6353 3.63979 44.0697 0.00125454 0.00644271 0.0046431
68 1 3 45.9368 4.47906 39.7711 0.000138338 -0.00606517 0.00116925
689 3 3 49.0862 6.45794 41.7215 -0.000885916 -0.00667162 -0.002625
2791 10 2 46.1061 5.10832 41.4368 0.00987686 -0.00407267 -0.0103685
595 3 1 54.2574 5.81303 42.4009 -0.00134304 -0.00171559 0.00132877
581 3 4 59.3124 4.25335 42.6048 0 0 0
2241 8 2 53.2739 1.90383 40.8872 0.0177492 -0.00245687 -0.0379475
1796 7 4 5.98404 8.30375 37.5049 -0.00596438 -0.0008433 0.00131398
1648 6 2 1.02459 10.0668 41.493 0 0 0
1808 7 4 3.78033 8.5747 40.1895 -0.00643907 -0.00274052 0.00442818
706 3 1 8.01258 9.7146 39.3317 0.00692463 -0.00462176 1.26779e-05
2010 8 1 10.0214 8.56581 43.1544 0.00185498 -0.00612687 0.00749214
1799 7 1 11.2827 14.3554 41.5557 -0.0048685 0.000897758 0.00411828
753 3 1 13.8203 13.5351 43.3427 0.0120497 -0.00234916 -0.000795735
1782 7 3 14.4596 9.01335 44.7335 -0.00345175 -0.00144466 0.00191259
1819 7 4 7.51465 13.6075 42.9082 -0.00635374 -0.00291502 0.0043049
1675 6 2 13.8019 13.7418 38.2393 0.01554 -0.00385488 -0.0183055
1120 4 2 13.888 11.8075 42.4917 0.0131192 -0.0133886 -0.0154609
2379 9 1 20.5365 10.8403 40.2834 0.003063 -0.0139567 0.00729416
1169 5 1 20.9006 8.37127 44.9809 -0.00428575 0.00524571 0.000361966
2036 8 1 19.9931 10.1875 42.1077 0.00205646 -0.00270862 0.00551827
188 1 1 20.9372 13.684 44.1992 -0.00217753 -0.0010076 0.00152808
1639 6 2 23.5563 13.8288 40.7148 -0.0273307 -0.0355293 0.0344327
1895 7 1 23.3062 12.0346 37.6035 0.000960487 -0.00528856 0.005009
2474 9 1 24.9787 14.6025 44.5003 0.00312587 0.00765342 0.00924493
109 1 1 26.496 14.4089 44.3299 -0.00447762 -0.00353763 -0.00394242
884 4 4 31.3192 8.15588 39.8995 0.000310868 0.00563515 0.000993016
1145 5 4 35.3634 9.79386 41.8901 -0.00360545 0.00511514 0.00207444
2043 8 1 31.6368 14.2681 40.8129 0.00483313 -0.00128717 0.00574876
1763 7 1 30.2593 9.33753 39.7528 0.00280211 -0.00437339 -0.00273409
1762 7 1 34.2093 13.2759 41.3476 0.00495451 -0.00347643 -0.00206616
359 2 1 31.8766 11.6142 43.8587 -0.00531657 -0.00878872 -0.00021211
2525 9 2 35.1063 10.0759 43.3133 -0.0162487 -0.00994886 0.00478571
1938 7 2 33.8023 11.5921 42.4785 0.0280405 -0.02433 -3.98135e-05
1100 4 2 34.6937 12.8756 44.1955 -0.0042357 0.0121842 -0.0187454
1667 6 2 39.2505 9.95466 40.0894 0.0229626 -0.0108701 0.00710458
1151 5 1 38.2512 7.65594 40.4788 -0.000983919 0.00379318 5.83286e-05
493 2 1 38.7717 14.6676 44.3024 0.00277908 -9.57556e-05 -0.000533428
201 1 1 38.6065 14.6 40.9309 0.00407979 -0.000178003 -0.00316923
24 1 3 39.2051 8.57191 41.5852 0.000523229 0.00127116 -0.000580338
1154 5 1 38.6288 11.0885 43.954 0.000160309 0.0052714 0.00143998
744 3 1 39.9266 9.37467 43.7362 -0.000134565 -0.00373813 0.00104409
57 1 1 42.7617 12.0363 42.7988 -0.00159971 -0.000743076 0.00340512
754 3 1 41.5002 10.7004 40.6245 -0.000195523 -0.00298664 -0.00208701
461 2 1 40.8009 10.2882 43.8607 0.00177434 -0.00523832 0.00494269
942 4 4 44.6001 8.6903 38.216 0.00145285 -0.0107107 0.000559217
427 2 1 42.4557 7.54641 41.97 -0.000160132 -0.00857944 0.00199399
1654 6 2 38.267 8.60849 39.3358 -0.0239936 -0.0127598 0.0016063
967 4 1 39.0729 14.4562 44.5036 -0.00221484 -0.0109443 0.00669625
348 2 1 44.1941 13.9407 43.2046 -0.00170958 -0.00674411 0.00159782
202 1 1 45.3351 8.27821 39.1574 0.00758163 -0.00239831 -0.00391624
64 1 1 46.4643 13.0562 39.5679 0.000782109 -0.00138191 0.00178434
748 3 4 50.8581 9.21514 44.4624 0.00466124 -0.00353554 0.00139454
310 2 4 45.6057 10.7489 40.8097 -0.00128691 -0.00163324 -0.000635723
782 3 1 50.869 12.5844 41.1331 -0.00213918 -0.00170025 -0.00547076
415 2 1 48.6721 12.7222 44.1939 0.00408485 -0.00484233 0.00121798
1929 7 2 47.313 13.1557 44.397 -0.0149976 0.0191103 -0.002318
2815 10 2 48.4545 11.89 42.5533 0.013157 -0.0031128 -0.00960549
550 2 2 55.6865 14.837 43.9451 -0.0174946 0.0206692 0.00684483
892 4 3 59.1608 10.6337 44.33 0 0 0
147 1 3 56.8384 12.3489 39.6366 0.00745417 -0.00226363 0.00143663
327 2 1 57.2482 13.0119 42.8793 0 0 0
577 3 1 57.1791 10.0481 43.0406 0 0 0
1410 5 2 55.585 10.7121 38.2624 0.000320017 -0.0172892 -0.023937
1402 5 2 57.0913 13.1731 41.0622 0 0 0
643 3 1 2.0668 16.1972 44.5643 0 0 0
1937 7 2 1.77328 21.4698 38.138 0 0 0
621 3 1 0.192656 20.0999 44.1103 0 0 0
758 3 1 1.89294 16.9795 42.4329 0 0 0
2437 9 1 5.9306 19.632 43.0848 -0.00395016 -0.0077816 0.00465433
2491 9 2 4.14387 15.5498 41.0567 0.0131159 -0.0562729 -0.0146137
2141 8 1 10.3547 19.0126 40.4579 0.0011531 0.00461826 0.00897918
1765 7 1 13.136 20.0413 38.3924 -0.00355399 -0.000249875 -0.00307624
1754 7 1 10.7987 19.5159 44.0831 -0.00532213 -0.00271564 -0.00171397
1784 7 1 14.1794 20.8759 41.2185 -0.00398185 0.00326114 0.000848989
113 1 1 9.82818 19.7751 43.6174 -0.00990833 -0.00102958 -0.00346943
735 3 4 19.0844 16.093 37.7148 -0.00933343 -0.000636384 0.00116991
1475 6 1 15.8875 19.3171 39.2471 -0.00559742 -0.00682476 0.00376724
1876 7 4 19.0852 18.6882 38.804 0.00287488 -0.00568231 0.0021656
751 3 1 17.7329 18.3437 44.7916 -0.0100657 -0.000407311 0.000231435
357 2 1 22.4096 16.42 38.4611 -0.00964774 -0.00679639 -0.00225556
460 2 3 27.7293 20.5414 38.366 -0.00341829 -0.00101863 0.00327321
1564 6 1 24.2773 20.8004 40.2423 -0.00414749 -0.00299824 0.00587053
2779 10 2 27.3369 17.6262 40.9765 0.00175197 0.0271057 0.00662778
1897 7 4 28.7133 21.1395 42.9936 0.00400053 -0.0026134 0.00759704
1833 7 1 26.7085 16.9332 42.8354 0.002971 -0.00282753 0.00105776
1777 7 1 26.8919 18.5456 42.229 0.00192677 0.00109463 0.000253591
289 2 1 26.6876 19.1852 38.0673 -0.00479574 0.00193368 -0.00316028
2781 10 2 35.7778 21.2788 39.9473 -0.0193945 0.00431831 0.00875333
442 2 4 33.4602 22.4698 39.3556 -0.00393833 -0.00328087 0.00383624
197 1 1 30.0924 19.8435 42.4207 0.00142257 0.00222982 -0.00136371
1785 7 1 36.8066 16.5263 38.7638 0.00567425 0.00202773 0.000270722
478 2 1 32.4848 17.1067 41.404 -9.96637e-05 -0.00102612 0.0015276
144 1 1 30.7505 21.8278 40.9823 -0.00273339 0.00179674 0.00115134
1707 7 3 33.3317 18.6201 42.5641 0.00169306 -0.00424115 0.00486686
31 1 1 37.1416 17.8465 37.5543 -0.00146978 0.00543021 -0.00145987
369 2 1 32.828 18.9957 44.9937 -0.00290762 -0.00548653 -0.000924903
1569 6 1 37.885 16.0365 38.0448 0.00165479 -0.00359581 0.00591631
1576 6 1 42.4585 21.132 38.0842 0.00305462 -0.0013456 0.00692288
733 3 3 40.2539 16.1258 38.213 -0.000336031 -0.00138009 0.00145922
1149 5 1 43.4826 16.9581 37.8499 0.00096182 0.00794525 -0.000664058
1795 7 3 39.44 16.3542 40.5876 0.0066148 0.00199489 0.00281102
479 2 1 40.552 18.7576 42.8127 0.0029924 0.000743453 0.0020499
151 1 1 40.3231 19.1207 43.5397 0.000725655 0.000821068 0.00390466
137 1 1 39.9839 15.2584 40.2471 0.00107478 -0.00138424 -8.59476e-05
940 4 4 41.7816 19.0109 40.3764 0.000412259 -0.00516643 0.00255496
349 2 1 37.8764 17.8985 40.3975 -0.00437065 -0.00561701 0.00017741
1539 6 1 47.8107 18.3994 39.9814 0.00154827 -0.00759343 0.00690614
46 1 3 46.1084 15.2845 38.5784 0.000458544 0.00278618 0.00165297
38 1 4 47.6093 15.8741 42.0452 0.00172293 0.00469804 0.00102328
1719 7 1 45.9341 18.5933 42.9536 0.00610603 -0.0058411 0.00241224
594 3 4 48.5487 18.6017 37.9381 -0.00195413 0.00297868 -0.00122757
746 3 4 49.7518 20.346 42.4508 0.00276991 -0.000127192 0.000957508
96 1 4 46.3756 16.3395 42.7031 0.000596232 -0.00284381 -0.00227555
784 3 1 46.0029 20.1721 41.3733 -0.00413762 0.00107922 -0.00587028
12 1 1 47.2631 16.3767 44.858 0.00507845 0.00305148 -0.00179359
2514 9 2 45.332 18.5804 39.1452 0.0121988 -0.00898143 -0.0172191
2537 9 2 49.2802 17.3321 44.7414 -0.0102415 -0.0160128 -0.0156619
1095 4 2 59.1007 16.1735 41.4651 0 0 0
2472 9 2 52.6174 15.1861 43.4645 -0.00806502 0.00771846 0.00678579
430 2 4 52.7433 22.2532 42.0106 0.00403373 -0.00319432 0.00199625
578 3 1 55.2431 15.2576 44.5665 0.000543241 0.000862237 -0.00134458
1078 4 2 55.8909 17.2372 42.566 0.0105032 0.0102365 -0.0219444
352 2 1 5.06233 27.7872 44.9095 0.00742253 -0.00197314 0.00172182
2576 10 4 11.4742 24.5074 39.4333 0.0014573 0.00240295 0.00546014
2578 10 1 10.0885 24.6705 39.533 0.00101698 0.003641 0.00541801
2464 9 1 10.0896 23.9305 41.4936 -0.00119696 0.0126286 0.00482265
717 3 1 10.9345 28.5789 40.3787 0.00879539 0.00283437 0.00305668
774 3 1 11.4126 24.8822 41.5407 0.00941344 0.00325688 -0.00547172
1843 7 1 9.35934 29.1169 38.0564 -0.00371427 0.000207569 -0.00243624
393 2 1 9.50607 26.8534 42.8283 -0.00922117 0.000293767 -0.00291866
1745 7 1 12.5064 26.2988 41.9903 -0.00613104 -0.00127686 -0.00255108
788 3 2 12.9776 29.0163 43.8089 0.00813583 -0.0182815 -0.00246802
1933 7 2 19.925 29.9477 44.5942 -0.00195998 0.00447589 -0.000804333
146 1 1 23.4512 28.5074 41.1983 -0.00570232 0.00461216 0.00176774
203 1 1 22.5016 28.7837 39.3507 -0.00228774 0.00567187 -0.00431771
1752 7 4 27.419 26.5029 40.2348 0.000211196 -8.84222e-05 -0.0035397
473 2 3 28.7563 26.4117 43.3751 -0.00197107 0.00266788 0.00322446
1208 5 1 28.2895 28.897 44.4518 -0.0047266 -0.0040604 0.00192672
507 2 2 25.6871 29.1252 40.3167 -0.00698075 -0.0429103 -0.000696501
1671 6 2 30.6919 24.071 39.8752 -0.000947243 0.0209804 0.00619727
2202 8 2 31.5415 24.7445 41.4349 0.0343314 -0.00164738 0.00943796
161 1 1 33.0494 25.2955 43.4194 -0.000488623 0.00356739 0.00524015
129 1 1 31.6762 29.8602 38.0753 -0.0013871 0.00501207 -0.00312469
407 2 3 30.0295 27.8953 40.3557 -0.0022306 0.00184933 -0.00142291
95 1 1 30.9854 29.7957 41.3465 -0.00508503 0.00188788 -0.0032958
713 3 4 35.0069 24.1138 39.279 -0.00601683 0.00146473 0.00112362
330 2 1 33.9048 28.76 39.9491 -0.00793607 0.0017808 0.00136366
371 2 1 37.3129 27.5265 40.3901 -0.00118004 -0.0023546 -0.00324596
769 3 4 39.5112 23.6115 41.6837 -0.00198113 0.00284778 -0.00430812
436 2 1 38.0029 23.7802 41.3473 -0.00214963 -0.00238873 0.00348651
294 2 1 41.1046 28.0891 43.6399 0.000240226 0.00547924 -0.000325224
943 4 1 38.3948 28.3065 42.9643 -0.00209126 -0.00180821 0.00359814
637 3 1 43.095 29.4972 44.6168 -0.0053248 0.000828877 0.00362394
282 1 2 51.6222 23.909 41.0931 0.00646929 0.00434961 -0.00641036
1725 7 1 46.8664 28.7103 38.9212 0.00640495 -0.00203828 -0.000116737
131 1 1 50.1568 23.9065 40.2163 0.00580391 0.0026842 -0.00174748
93 1 1 45.4625 29.2256 39.858 0.000904202 0.00116183 -0.0037484
342 2 4 51.9249 27.8396 43.7081 -0.000503635 -0.000693767 0.00150684
949 4 3 46.0576 28.1902 42.3522 -0.000149771 -0.00272952 0.00360686
1227 5 1 49.9556 24.8698 38.5118 -0.00025655 -0.0055065 0.000227933
1466 6 1 50.8222 23.7362 41.479 -0.0146371 -0.00482072 0.00683198
260 1 2 50.2144 24.885 40.8284 0.00546094 -0.0203144 0.000696955
2765 10 2 47.0502 29.1719 43.0406 -0.00907673 -0.0197721 0.0101434
499 2 1 45.5453 22.7225 44.11 0.00412894 0.00370181 -0.00179759
309 2 1 55.5715 22.6465 44.8932 0.002421 0.00274942 0.00181129
724 3 4 59.0058 22.6548 44.2952 0 0 0
75 1 1 57.2254 23.9881 39.5645 0 0 0
704 3 4 59.4134 25.906 38.4946 0 0 0
674 3 1 57.4307 23.4621 43.3912 0 0 0
657 3 1 3.56941 31.6365 38.0663 0.00217977 -0.000332987 -0.00339107
2185 8 1 1.41645 34.9692 41.3811 0 0 0
1555 6 1 14.8865 34.3397 40.0374 -0.00864262 0.000819862 0.00552056
2247 8 2 13.9656 31.3272 38.0533 0.00251982 0.00532489 -0.0118527
1842 7 1 13.6121 32.5569 39.762 -0.00178717 0.00201795 -0.0014788
1841 7 4 12.9449 33.6884 37.5485 -0.00272206 0.00205455 -0.00151501
1185 5 1 14.2932 35.1041 44.945 -0.00685713 -0.00431676 0.000199581
519 2 2 18.6238 33.7606 40.8685 0.0105883 0.000702245 0.024625
2039 8 1 15.3187 30.1203 40.2196 -0.000779737 0.00537611 0.00474943
2422 9 1 20.5434 36.2032 41.738 -0.000327056 0.00162288 0.00428522
166 1 1 15.37 33.6196 44.5485 -0.00661678 0.00698545 0.00567661
1869 7 1 20.9687 37.3595 44.2079 0.00355508 0.00212101 0.00318997
1855 7 1 22.3956 32.2389 43.073 0.00396703 8.91491e-05 -0.00016841
1728 7 1 19.5261 34.61 43.6895 -0.00385914 8.12013e-05 0.00126181
585 3 1 20.2712 36.465 39.4994 -0.0137511 0.00967921 -0.00164623
1966 7 2 18.2117 35.152 40.2812 -0.0471697 0.0036004 0.00439368
2455 9 1 15.5052 36.5473 40.3895 0.000663299 -0.00436268 0.00421982
1281 5 1 19.4696 37.0179 39.1291 -0.00464057 -0.00372802 0.00164165
2569 10 1 22.5121 31.322 38.6274 0.00595924 0.00475519 0.00628497
915 4 1 29.9533 36.0665 37.5486 6.91368e-06 -0.000752201 0.000536238
745 3 1 29.9713 30.2196 38.3006 -0.00484348 0.00423585 -0.00148415
1695 7 1 22.5359 32.9308 44.4393 -0.00292923 0.00321311 0.00721452
1702 7 1 24.1639 34.766 39.9852 -0.00132323 0.0031196 0.00476966
878 4 1 27.6346 32.7153 38.6649 -0.00171815 -0.0085047 0.00230077
189 1 1 25.0754 35.5422 43.5398 -0.00114705 0.00755689 0.000657125
1858 7 1 24.7498 37.095 38.7477 0.00449551 0.00140801 -0.00127093
1866 7 1 26.8156 35.0822 39.1419 0.00588424 0.000463278 0.000541149
1921 7 2 24.2317 36.4929 37.8117 -0.00331013 0.00141795 -0.000108117
1546 6 1 33.7072 34.8768 40.6082 -0.00261272 -2.64863e-05 0.00693327
845 3 2 35.8467 30.5844 43.6285 -0.00713493 -0.0182034 0.0183878
790 3 2 34.9176 34.3982 42.9011 0.015665 0.00978609 -0.00144035
1756 7 1 30.2165 33.0779 42.999 0.0027258 0.00279436 -0.00167001
1713 7 1 31.074 34.3507 39.5038 0.00104161 0.00140669 0.0023127
1477 6 1 37.0132 33.0599 41.2042 0.00231729 -0.00120883 0.00467967
1733 7 1 31.1078 35.8387 38.2578 0.000691108 0.000429468 -0.00213527
1245 5 1 32.5639 31.3474 42.6805 -0.00734964 -0.00613623 0.0032838
707 3 1 35.2155 35.315 38.6869 -0.00624502 0.00477199 0.000243176
730 3 1 43.3614 32.0349 37.7871 0.000212947 0.00509797 0.00185484
994 4 4 38.4214 34.2559 39.5622 0.00302138 -0.00215243 0.0043905
1 1 3 38.2072 30.5504 39.1073 0.00165449 0.00802894 -0.00577109
391 2 1 41.5163 31.4296 39.6344 0.00342534 0.00212864 -0.00473664
1195 5 1 40.6675 33.9855 42.25 0.00267939 -0.00334098 0.000145218
363 2 3 39.6502 36.7179 44.6678 -0.00140633 0.00119876 -0.000294863
1221 5 1 44.8074 36.0382 37.8456 -0.00151746 -0.000709511 -0.000435349
207 1 1 38.9469 32.0169 44.1028 0.00394877 0.00696035 -0.00286287
2775 10 2 43.0758 30.3611 37.5867 -0.0134905 0.00918084 -0.0201601
719 3 1 47.6214 33.7124 38.1043 -3.02534e-05 0.00462818 0.00215292
314 2 1 45.2981 33.1942 40.28 -0.00164397 0.0065273 0.000837183
929 4 4 45.1622 35.3139 39.485 0.00423009 9.87715e-05 0.00261241
1525 6 1 45.2153 30.0786 43.3697 -0.00185829 -0.00389216 0.00720146
421 2 1 50.6529 34.1875 41.7034 0.00378916 0.00336459 0.00112178
1233 5 4 48.8665 33.6586 38.347 -0.0011578 -0.00321294 -0.000259592
392 2 1 52.2195 35.1221 43.8979 0.00789541 0.00310643 -0.00222482
520 2 2 46.167 31.013 41.9526 -0.00120201 0.000738799 -0.0224274
2459 9 1 52.8471 31.6272 38.2615 -0.00831395 -0.00756312 0.0041422
448 2 1 57.0587 30.5013 40.8457 0 0 0
765 3 1 57.1039 30.7598 39.4036 0 0 0
1715 7 1 59.6588 35.6655 41.5287 0 0 0
1225 5 1 52.977 31.485 42.3713 0.00136319 -0.00247841 0.00177934
344 2 1 58.1842 34.6087 39.5381 0 0 0
654 3 3 56.3275 36.9408 38.7274 -0.000919817 0.00204312 -0.00228786
668 3 4 57.1884 36.0946 43.1908 0 0 0
2533 9 2 57.1615 32.7878 43.1117 0 0 0
2439 9 1 4.68818 38.9554 44.4442 -0.00439433 -0.000158243 0.00465569
1451 6 1 14.194 38.623 40.2154 -0.00534558 0.000164816 0.00933298
2761 10 2 10.719 37.9644 38.1506 -0.000927199 -0.0190298 0.00961022
1653 6 2 12.6968 41.272 44.3993 -0.0109881 0.0251396 0.00493974
762 3 1 14.7233 39.2327 42.7811 0.0118673 0.00797267 -0.00268675
552 2 2 10.701 37.5986 39.8562 -0.0108232 0.00624464 0.00466287
2445 9 1 8.73591 43.8209 42.4654 -0.00244643 0.000547946 0.00488856
1676 6 2 11.9968 42.3775 39.618 -0.00873248 0.00643382 -0.0161888
2263 9 1 21.233 39.6761 38.7852 0.00056761 -0.00536314 0.00580407
2261 9 1 20.3143 40.8089 39.8466 -0.000137872 -0.00524525 0.00651823
2301 9 1 21.6089 39.5442 39.6276 -0.00449884 0.000256472 0.00708905
832 3 2 18.8773 41.4431 44.992 0.0154909 0.0335824 0.00358319
410 2 1 20.9248 39.1163 42.0446 -0.00622806 0.00616253 -0.000326176
1884 7 4 17.3948 41.7125 39.9292 0.000356312 0.00572579 0.00334567
1714 7 1 19.2114 39.4279 40.1586 -0.00446545 0.00300877 0.00298824
894 4 1 16.8226 44.0603 44.7769 -0.00343214 -0.00185187 0.00374916
1101 4 2 28.0075 42.8844 41.3533 0.0188398 -0.0247018 0.0289669
1397 5 2 28.4301 40.9831 40.2185 0.0215325 -0.00296314 0.005749
1879 7 1 29.0837 40.8481 38.4463 0.00564988 0.00469124 0.00261773
854 4 4 27.1554 39.6368 38.2859 -0.00765706 -0.00424927 0.00358756
2785 10 2 26.613 41.6094 42.8499 -0.00132078 -0.0124042 0.011704
904 4 1 27.5941 41.1158 38.9756 0.000861642 -0.00106887 0.00170025
891 4 1 28.5173 38.907 42.8234 0.000797726 -0.00467239 0.00251095
650 3 1 29.8456 39.7918 42.677 -0.0116306 0.00337113 0.000773985
1312 5 4 24.3654 44.8619 41.9992 -0.00454344 -0.00308646 0.00706087
490 2 1 27.9243 38.1259 37.8282 -0.0012451 -0.0144656 -0.00175313
1172 5 1 29.272 44.4954 42.7794 -0.00137719 -0.00345542 -0.00109744
247 1 2 27.1147 39.3291 38.4982 -0.0298577 -0.0194284 -0.00446434
2219 8 2 29.6756 44.7029 43.746 0.0260642 0.0341763 -0.0136092
1455 6 1 31.8523 39.6979 37.8141 0.00196894 0.000476744 0.00743683
1480 6 1 36.3181 39.5694 40.2467 0.00114963 0.00153616 0.00385228
89 1 1 30.0853 40.6352 37.7062 -0.00577066 0.00619647 -0.00335433
99 1 1 35.6595 43.6294 39.0082 -0.00244419 0.00693537 -0.00484673
1276 5 4 31.8999 42.7508 39.8669 -0.00147686 -0.000343293 0.00187557
1274 5 1 30.2689 42.7866 44.0227 -0.00202243 -0.00167457 0.00343949
1939 7 2 31.811 43.1041 43.5786 -0.019634 -0.0109832 -0.021407
966 4 1 39.6025 39.1267 37.7193 -0.00233661 -0.00118574 0.00307294
2199 8 2 42.315 42.2433 40.6909 -0.0106992 -0.0174391 0.00996355
367 2 1 44.7655 38.2404 43.2232 0.00149258 0.00216295 -0.0012227
2406 9 1 38.4556 42.8659 41.8214 0.00686102 0.00353757 0.00732415
648 3 1 39.6321 41.4943 42.3583 -0.00728676 0.00440571 0.000743716
1288 5 4 39.7121 43.2618 42.9154 0.00411324 -0.000562077 0.00459935
1201 5 1 42.371 42.3583 42.2168 0.00223362 0.00077693 0.000647526
340 2 1 44.178 41.1903 44.562 -0.00302201 0.00495293 0.00303161
341 2 3 43.5598 40.6072 41.1514 -0.0033061 0.00439489 0.00123417
1304 5 1 46.6303 41.0132 38.3688 0.00536253 -0.00419314 0.00495791
990 4 1 49.0735 39.581 37.9839 0.00671299 -0.0012736 0.00376395
1043 4 1 47.3695 40.1941 37.6876 0.00206302 -0.00351796 0.00658426
370 2 1 47.8474 38.1359 41.5619 0.00259457 0.00154475 -0.00284004
1599 6 1 48.4942 44.4504 42.9821 0.00126047 0.00564976 0.00972924
957 4 1 50.4022 41.4438 41.0397 0.00107448 0.00140232 0.00418268
1236 5 1 50.9017 37.8323 40.8172 -0.000354516 -0.00139346 0.0023137
1229 5 1 50.2001 41.3433 44.7526 -0.000507571 0.000929716 0.00312543
1129 5 3 47.774 41.3344 39.064 -0.00127722 -0.00601422 0.000733207
1974 7 2 54.5076 42.6556 40.0902 0.0339706 -0.0149253 0.00613767
418 2 1 56.3639 39.2885 43.7441 0.00639235 0.0057774 0.00168402
655 3 1 55.262 38.5421 41.0992 -0.00106401 0.00233245 -0.00164032
100 1 1 54.7843 42.0721 42.105 0.00501334 0.00681485 -0.00374401
1249 5 1 53.7886 41.8887 39.8187 0.00199182 -0.00219892 0.00277946
1516 6 1 59.0043 38.6099 39.7297 0 0 0
1063 4 1 56.0542 40.1268 44.6508 0.00267248 -0.00428729 0.00577312
827 3 2 55.4507 39.0132 42.0864 -0.0214789 -0.0166719 0.00401974
2342 9 1 53.2033 42.9301 38.6683 -0.00928709 0.00198444 -0.0129019
907 4 4 3.57197 52.2412 37.9904 -0.00872201 0.00346289 0.00180375
964 4 4 0.511772 47.1807 38.9016 0 0 0
680 3 4 3.19284 47.6778 39.5452 0.00463194 0.00797832 -0.00529552
443 2 1 0.491441 46.5048 43.0251 0 0 0
1551 6 1 0.0449477 50.917 43.0224 0.00857158 0.00689682 0.00673376
1232 5 4 1.77264 49.3338 44.6478 0 0 0
1204 5 1 0.18258 51.1464 39.8858 0 0 0
1908 7 2 1.51441 47.8743 43.3947 0 0 0
2519 9 2 14.9881 49.9306 43.5458 -0.00360237 0.0309374 0.0314087
797 3 2 13.1603 50.5309 43.0561 0.00671934 0.015274 0.0287129
2041 8 1 13.9021 47.2682 40.0291 -0.00135476 -0.0117239 0.00523526
79 1 1 9.89731 46.9689 37.5568 0.00948293 0.00965437 -0.00169608
1476 6 1 9.03152 45.6014 42.2946 -0.00899419 0.00399698 0.00563025
2431 9 1 10.1326 46.5254 43.1245 -0.00257815 0.00466894 0.0044466
1242 5 1 10.3005 51.794 42.67 0.00739298 0.00237599 0.00302038
1611 6 1 17.605 46.603 43.9171 0.0113688 0.00416842 0.0106889
1191 5 1 21.417 48.7117 38.3924 -0.0042976 0.00225107 -0.00198063
1158 5 4 20.2476 52.0696 40.2362 -0.00713418 -0.00225937 0.000448473
1568 6 1 29.4059 47.3412 39.3351 -0.00146243 0.00811568 0.00666365
2420 9 1 22.7631 46.2356 42.1704 0.000146449 0.00553304 0.00481978
1199 5 1 23.1732 50.3533 37.5028 -0.00552551 0.00401493 -0.00178648
890 4 1 24.3138 52.0449 39.9248 -0.00137408 0.000554358 0.00107631
1186 5 1 24.1545 48.6062 44.7903 -0.00262981 0.000887671 0.000932512
935 4 1 35.6002 45.5759 39.3278 -0.00138594 0.00470315 0.00156432
910 4 1 33.839 50.3898 38.9391 0.00253079 0.00351473 0.00183404
1736 7 1 35.9922 51.3057 41.0707 0.00233767 0.00762308 -0.00138652
710 3 1 44.109 45.7682 38.9596 -0.0024964 0.00965647 0.000855848
939 4 1 40.6892 50.6328 38.3767 -0.00074513 0.00698111 0.00142748
1727 7 1 41.6403 48.4102 44.6837 0.00415253 0.0058405 0.00165949
633 3 1 39.1136 50.9685 42.7358 -0.00756335 0.0098174 0.00333154
1271 5 1 40.8193 52.4159 40.3589 0.00153733 0.00276596 0.00201795
1187 5 3 41.6988 50.1273 43.0822 0.00414834 0.00188772 -4.03344e-05
1267 5 1 41.6749 51.0159 41.1789 0.00107155 0.00146395 0.00245277
1348 5 1 43.8844 47.6708 43.5619 -0.00416182 -0.00279569 0.00243434
1636 6 2 47.8597 47.2969 43.0844 0.00342589 0.00170436 0.0122506
1337 5 1 50.6588 50.662 38.3863 -0.00017288 -0.00178718 0.00310011
351 2 1 52.0105 45.8797 42.9839 0.00159301 0.00522427 0.000332768
354 2 4 49.6928 47.4892 41.9604 0.000224721 0.00591327 -0.000315849
1107 4 2 51.0238 49.4886 42.7705 0.00921353 0.00252385 0.00544501
432 2 1 46.4354 51.5217 42.6603 0.000945354 0.00904029 0.00314494
2458 9 1 52.1758 47.0138 39.4228 -0.00849849 -0.00116049 0.00375831
902 4 1 53.7203 51.0005 39.7245 -0.0125927 0.00240019 0.0017562
1241 5 1 55.8536 45.1833 38.7686 0.00163386 -7.86757e-06 0.00228303
1342 5 3 55.5103 46.9852 40.1326 0.000973337 -0.00366831 0.00370344
833 3 2 5.71798 57.302 39.7274 0.00996319 -0.0097404 0.000439373
651 3 1 6.28742 58.8315 40.9628 0.00362257 -0.012717 -0.000753261
226 1 2 1.12038 58.0244 38.2396 0 0 0
583 3 1 0.505363 56.0555 41.4608 0 0 0
1137 5 1 0.145135 54.6386 43.7489 0 0 0
2518 9 2 6.19715 59.4628 43.9708 -0.00522634 -0.0135609 -0.0159269
1089 4 2 3.25513 58.8499 38.5414 0.0105181 0.00926196 -0.0219958
2470 9 3 15.1314 54.1586 44.4096 0.000879777 -0.000308555 0.00700986
1797 7 4 19.8918 55.9803 38.6945 -0.00202766 -0.00657309 0.00197021
883 4 3 19.9228 59.2254 42.7601 -0.00380129 0.00229938 0.00291524
1139 5 1 22.2871 53.3647 41.9826 -0.00985917 -0.00173211 0.00123346
1314 5 1 26.6331 57.648 38.7214 -0.00480516 0.00194839 0.00539096
1724 7 1 24.5038 54.8105 40.8399 -0.00168088 0.00829102 0.00110477
1166 5 4 22.9051 58.1568 43.6572 -0.00490636 0.000547526 -0.00085111
2508 9 2 31.0564 54.3532 39.4551 -0.015251 0.0274109 0.00897366
955 4 1 37.0708 55.6047 39.6991 -0.00452127 0.00711348 0.00315124
1181 5 1 34.0951 57.0376 42.4437 0.00121603 0.00355666 -0.00123211
1141 5 1 31.5097 56.031 44.6773 -0.00571733 -0.000809193 0.00203212
1655 6 2 38.2859 56.1422 41.9296 0.0224076 -0.0173755 0.00375185
1238 5 1 40.0914 52.5833 43.303 -0.00470665 0.00403772 0.00360559
900 4 1 41.3111 57.4572 44.8951 0.00650564 0.00447206 0.00405006
875 4 1 46.0262 59.9944 38.7182 0.00510409 0.00227654 0.00221646
740 3 1 45.8591 54.7169 39.5583 0.00224606 -0.00945843 0.000625713
1638 6 2 46.6531 58.0015 43.8161 -0.0201023 0.00622259 0.0125941
842 3 2 51.7578 57.1272 42.5422 0.00234914 0.0164913 -0.0289635
2254 8 2 57.7793 57.1031 43.2616 0 0 0
747 3 1 57.508 59.5107 38.8005 0 0 0
2582 10 1 56.8515 55.1922 42.363 -0.00502261 -0.00778352 0.00604479
1343 5 4 56.5543 55.0971 41.8865 0.0014689 -0.00102196 0.00510381
539 2 2 5.98335 0.0902915 46.1918 0.0105397 -0.00919828 0.00180512
574 3 1 1.64818 2.6524 50.6654 0 0 0
584 3 1 3.08994 6.47984 51.5756 0.00305718 -0.00164607 0.00234824
776 3 1 3.16321 5.80829 47.2012 0.00594529 -0.00421909 -0.00371031
809 3 2 0.361214 6.06129 46.9851 0 0 0
2495 9 2 9.51107 6.6657 48.5459 0.0177264 0.0135067 0.0134883
2461 9 4 14.8514 5.13165 50.0438 0.000658953 0.00607706 0.00751193
1940 7 2 20.6398 7.21494 48.9054 -0.00192209 0.0218316 0.0289386
48 1 1 15.2666 3.87679 45.9624 0.0124342 -0.00212009 0.00489216
132 1 1 18.3504 6.74786 51.2219 -0.00669784 -0.00510326 0.00283397
483 2 1 23.7166 7.25972 47.3703 -0.00362496 -0.00399851 0.00242892
2244 8 2 34.6313 0.660716 48.6917 -0.0122487 -0.00396851 0.0140435
484 2 1 37.1097 6.71703 45.755 0.00217509 -0.00360559 0.00221278
512 2 2 30.8789 1.93394 48.994 -0.00718283 -0.00611522 0.00466201
1960 7 2 42.7725 3.33061 50.9934 -0.0358326 -0.0126522 -0.0187982
236 1 2 40.8694 5.19428 46.6525 0.0230266 -0.00260949 0.0295734
212 1 1 39.3866 2.03031 50.9101 0.00494144 -0.00446588 -0.00116074
489 2 1 37.969 4.14259 47.3321 0.00218318 -0.00487217 0.00147763
494 2 1 40.0592 4.61744 45.6659 0.00373089 -0.00350342 0.000442364
799 3 2 52.2785 4.71754 50.8468 -0.0270426 0.018605 -0.0400317
879 4 1 47.2015 1.90851 49.6048 0.00627379 0.0030394 0.0057223
22 1 1 45.2551 7.3366 46.3769 0.00331205 0.00092184 0.000433177
136 1 1 48.9154 3.90835 46.9717 0.00508216 -0.00528506 0.0021679
1142 5 1 47.9745 5.32547 51.293 0.00113819 0.00319499 0.0054528
152 1 1 49.2353 5.37422 50.6665 0.00478252 -0.00550111 0.00663978
2162 8 1 45.1423 3.42216 51.2261 -0.00926828 -0.00434194 -0.00726676
2240 8 2 57.0385 6.22163 48.9251 0 0 0
1877 7 1 57.8266 2.7139 49.6769 0 0 0
323 2 1 54.9802 6.85836 48.7312 0.000438893 -0.00525986 0.00471369
1414 6 1 59.0028 3.97085 48.5319 0 0 0
1388 5 2 4.8599 10.1766 47.0702 -0.0130444 0.00851183 0.0287329
592 3 4 1.25794 12.1091 48.9928 0 0 0
699 3 1 4.32535 13.5468 47.4535 0.00528214 -0.0041001 0.00227621
768 3 4 0.598186 14.8812 48.8194 0 0 0
1678 6 2 3.44344 12.1687 50.7246 0.0102398 -0.00455651 -0.0108386
1090 4 2 8.36955 11.1278 50.5906 -0.0110954 -0.00886487 0.0294267
2595 10 1 8.14522 13.3316 45.3469 -0.00249071 0.00166865 0.00699036
1867 7 1 13.866 10.3335 45.2791 0.000926804 -0.00836542 0.00321325
816 3 2 9.28647 8.89462 47.6865 0.0305138 -0.0321262 -0.0014478
1657 6 2 14.4566 14.7648 49.021 0.011113 0.0135983 -0.0183896
798 3 2 7.61037 9.18237 48.28 0.00328575 0.0219285 -0.0181256
1780 7 1 21.0048 14.1397 45.4419 -0.000893677 0.000311871 0.00125516
1800 7 1 15.8499 10.8821 48.7801 -0.00218204 -0.000713154 0.00662526
195 1 1 18.7103 10.9196 50.1446 -0.00308668 -0.00146457 0.00227063
495 2 4 15.0964 10.8607 49.207 -0.00689743 -0.00187893 0.00104801
205 1 4 22.0102 10.9217 46.6767 -0.00127911 -0.00121974 -0.000776523
2071 8 1 16.141 14.207 50.1106 -0.00477282 -0.00257918 -0.00986856
275 1 2 27.7562 10.6308 46.5021 -0.0233863 0.0229351 0.024132
150 1 1 23.8389 7.68069 47.32 -0.00569643 -0.00417373 0.00508358
1177 5 1 27.9989 10.9065 50.8595 -0.00108683 0.00857941 0.00228261
8 1 4 25.8809 8.30046 51.2947 -0.00270884 -0.00132381 -0.000320932
198 1 1 26.1322 11.254 49.4286 -0.000548303 -0.00207681 0.00126985
215 1 4 29.537 14.8804 46.5669 0.0014256 0.000878162 -0.00308003
834 3 2 29.1359 13.6762 46.6987 -0.00440443 -0.00149231 0.00328467
2516 9 2 22.5195 8.37775 48.2855 0.000656591 0.0116379 -0.014357
536 2 2 31.6793 8.73491 49.3956 0.0223285 -0.00563964 0.000558256
13 1 1 33.431 9.76514 50.0234 -0.00106121 0.00104405 0.000384565
297 2 3 33.0319 14.5119 51.2035 -0.00382363 0.000102345 0.00303619
134 1 3 32.5435 11.2216 49.3719 -0.0014846 -0.00278576 0.00279156
759 3 1 33.3169 12.0167 47.8718 -0.00419165 -0.00206254 -0.000128084
582 3 1 36.0352 13.0692 46.621 -0.00754471 0.000486071 0.000248813
1162 5 1 43.9797 8.18898 47.8189 0.00350387 0.00441079 0.00217916
69 1 1 41.7519 8.02504 47.7514 -0.00192083 -0.00474359 0.00399057
26 1 1 40.6901 8.70722 48.5417 0.00123885 0.00121129 0.00271786
757 3 4 42.9043 8.83316 50.218 0.000682521 -0.00344314 0.00148761
485 2 1 43.5381 14.3686 48.8598 0.00447523 -0.000793365 0.00264673
404 2 1 43.6151 11.1194 48.2063 0.00347323 -0.00473342 0.000866927
1156 5 4 46.7002 12.0483 45.4392 0.00266486 0.00543173 0.000911665
35 1 1 50.8573 13.1026 45.6841 0.00347492 0.00343986 0.00264443
613 3 1 46.4702 9.48433 49.1531 -0.0047091 -0.00291747 0.00734164
580 3 4 51.2886 9.40391 51.7412 -0.00225894 -0.000888436 0.00145689
428 2 1 49.575 12.9275 50.0681 0.00242122 -0.00564699 0.00550046
34 1 1 56.0327 8.45306 45.5922 0.00640067 0.00135042 0.00262368
602 3 4 56.4239 11.5864 46.8622 -0.00110844 0.000462976 0.00413649
30 1 4 56.3522 8.53036 50.2253 0.00792049 0.000894945 0.00353694
409 2 4 52.9682 8.2187 46.7598 0.00630809 -0.00581412 0.000499531
315 2 1 57.8307 12.0494 50.6332 0 0 0
2782 10 2 55.9519 14.8448 51.0091 -0.0124996 -0.0221877 0.0119096
1341 5 4 1.66693 17.0094 45.209 0 0 0
66 1 1 2.48048 20.9683 45.7988 0 0 0
2729 10 3 0.537515 21.377 48.8774 0 0 0
181 1 1 4.24704 21.2618 51.5932 -0.00943998 0.00168032 0.00534888
281 1 2 4.50492 17.9256 45.4813 -0.0107288 0.00243902 -0.00460629
2757 10 1 2.40871 22.2559 49.8326 0 0 0
1878 7 1 9.30669 16.342 48.3188 -0.00168852 -0.00589359 0.00671112
1686 6 2 9.41605 21.7299 46.5308 -0.0158408 -0.00482925 0.0110635
1753 7 4 8.23534 15.5818 51.1751 -0.00597667 -0.00538729 0.00133242
1766 7 4 14.2072 20.7679 50.5638 -0.00264633 -0.000764829 0.00173314
133 1 1 12.5749 18.0455 47.367 -0.00923322 -9.78101e-05 0.00146482
1809 7 1 18.0809 20.7762 45.2111 -0.00181365 0.00135887 0.00617444
831 3 2 18.9338 19.9327 47.397 -0.00880689 0.0232807 0.00446879
174 1 1 20.1103 16.3136 49.4139 -0.00318786 0.000120632 0.00677395
1788 7 4 21.1745 21.2803 49.7386 -0.00158498 0.00312851 0.00417943
119 1 1 15.2894 22.3917 51.7777 -0.00728983 0.000558689 0.000526668
477 2 1 22.2068 19.7309 47.2926 -0.00447007 0.000853158 0.00431144
128 1 1 19.5803 20.8327 52.2438 -0.00603469 0.000905462 0.00235911
1900 7 1 23.4433 15.0525 49.865 0.00100652 -0.0043842 0.0108436
711 3 3 26.8732 22.1124 45.5455 -0.00936393 -0.00023823 0.00381818
1355 5 2 28.5219 20.9089 45.7516 0.0192588 -0.0141537 0.00257745
1915 7 2 23.8998 21.2959 50.1613 0.0209859 -0.00214964 0.00883731
1837 7 1 26.432 15.7215 49.0637 0.00308362 -0.00388942 0.00274546
406 2 1 28.8597 18.2689 48.9122 -0.00285494 -0.00186245 0.00149849
752 3 1 28.2887 21.4971 49.7078 -0.0054049 0.00117164 0.00207192
1364 5 2 24.2188 20.7425 51.5982 0.0217403 -0.0113242 0.00389768
1680 6 2 32.2242 15.7024 47.5007 -0.00310951 -0.00355502 0.0120995
311 2 1 37.4666 20.5925 45.917 -0.00454295 0.00178539 0.00268001
199 1 1 30.2466 18.366 49.7801 0.00126022 0.00127 0.00122005
123 1 1 34.2288 19.9298 47.8177 0.000267529 8.99219e-05 -0.000191334
111 1 1 33.2041 15.2982 46.1833 -0.00139078 -0.00322313 -0.00281069
2735 10 1 36.8781 16.0083 47.1567 0.0104005 0.00029371 -0.0074061
2504 9 2 44.2849 16.2146 52.0411 0.0361424 -0.0114526 0.0163376
1072 4 2 43.4242 19.2297 49.8977 0.0253873 0.00944908 0.00681269
288 2 4 44.5837 15.099 48.9565 0.00217427 0.000725186 -0.000102618
246 1 2 41.5747 20.994 45.47 0.0219951 -0.00190321 -0.000208798
1768 7 1 44.2842 16.1693 48.6323 0.00920088 -0.00147508 0.00137013
537 2 2 38.6833 19.1549 47.164 0.000305319 -0.00117725 0.0016172
679 3 1 40.5783 17.616 51.9692 -0.00466149 -0.00320962 1.20975e-05
386 2 4 41.4654 19.5265 52.2516 0.00328735 -0.00474981 0.000502649
108 1 1 38.0452 21.1889 48.3441 4.40936e-05 -0.00158483 -0.00152315
1682 6 2 51.3086 16.1853 47.4813 0.00257423 0.0198353 0.0124505
1903 7 1 45.5431 20.3781 45.8389 0.00885323 -0.00123396 0.00914036
63 1 1 47.783 19.109 45.1643 0.000395581 0.000846009 0.00427493
638 3 4 46.1142 20.714 46.9642 -0.00340751 -0.00224801 0.00499647
631 3 1 51.4538 19.174 45.3479 -0.00210408 -0.00225762 0.00492955
1144 5 4 49.4877 17.7761 46.5532 0.00147867 0.00772044 0.00230526
285 2 1 47.2981 19.6665 51.9592 0.00342325 0.00237979 0.00154449
335 2 1 49.1389 15.8665 51.1969 -0.00205885 -0.00447619 0.00499276
695 3 1 51.6181 18.5117 51.7168 3.92452e-05 -0.00128693 0.00276231
682 3 4 46.2013 16.9539 48.0365 -0.0037799 -0.00351402 -0.0016534
2030 8 1 47.9868 21.8328 52.2028 -0.00939129 0.00155631 0.00922471
1986 8 1 45.5798 21.8115 46.7991 -0.00971807 -0.0025146 -0.0102684
1664 6 2 56.3851 21.6082 52.1506 0.00366004 0.0159493 0.035129
618 3 1 56.3873 19.0058 48.1344 0.000164119 0.000534327 0.00701537
1767 7 1 56.6803 17.5482 50.9012 -0.0108647 -0.000597938 0.00185927
575 3 1 55.7134 19.3324 51.6413 8.61536e-05 0.00257216 0.000881322
1613 6 1 2.24153 24.3723 47.6531 0 0 0
1791 7 1 6.9546 24.1495 47.3647 -0.00624576 0.0052738 0.00464067
646 3 4 1.04342 26.9623 47.5199 0 0 0
1845 7 1 5.58182 22.7178 49.9319 -0.00489647 -0.00274208 0.00208315
312 2 4 0.729703 24.2545 47.2596 0 0 0
714 3 1 0.900365 27.4001 50.727 0 0 0
81 1 3 3.65804 24.3366 50.8392 0.00742001 0.000311854 0.00346168
697 3 1 0.808402 27.243 47.8342 0 0 0
2425 9 3 12.5701 28.4898 45.0821 -0.00279514 -0.00165766 0.00511604
1773 7 3 12.0395 22.9403 47.1319 -0.00416938 0.0024981 0.00130555
194 1 1 7.75425 22.9981 47.127 -0.0076475 0.00286926 0.00125561
640 3 1 8.05704 29.5018 47.2878 0.00489802 0.000528711 0.00428352
2391 9 1 11.483 23.0312 51.4504 -0.00234521 -0.00671953 0.0119242
1874 7 4 14.3468 29.1884 48.1485 0.000232716 -0.000204223 0.00483899
586 3 1 13.6647 26.4793 46.8214 0.00721868 0.00651692 0.000977777
2800 10 2 11.9037 25.1868 45.1555 -0.0251117 -0.0157445 -0.0128534
1834 7 1 18.4753 22.5515 50.7269 -0.000734682 -0.00158099 0.00461356
2753 10 4 17.4651 27.0833 46.0454 0.00163885 0.00168412 -0.00658145
2628 10 3 25.2291 22.8752 48.6927 -0.00120318 0.00409488 0.0125227
1103 4 2 29.1643 26.3572 47.6762 -0.00372467 0.0167373 0.00739767
1861 7 3 24.3983 28.632 45.8869 0.00494453 -0.00192122 0.00226596
2068 8 4 27.4998 28.9162 47.5668 -0.000129693 0.00409209 0.0122091
2023 8 1 27.1606 25.831 48.7936 0.00675302 0.00221401 0.00754386
901 4 1 27.4108 24.1785 50.1384 0.000784718 -0.00825458 0.00538136
126 1 4 26.7005 27.1546 49.3744 -0.0023954 0.00272382 0.000692959
397 2 1 26.9848 22.8454 46.6558 -0.00228048 -0.000423428 -0.00026288
401 2 1 27.2948 29.8565 46.1913 -0.00213967 0.0024242 0.000112509
303 2 1 27.2038 25.4301 46.3614 -0.00714888 0.00382326 0.00201738
641 3 1 29.5651 29.2139 47.2547 -0.0114056 0.000186742 0.00398147
1814 7 1 27.5055 25.263 51.5649 0.002105 0.00227678 -0.0156168
1710 7 1 33.3418 26.2838 45.7788 0.0016631 -0.00154407 0.00571071
1478 6 3 36.9544 25.7047 46.9585 0.00186818 -0.00428212 0.00661499
434 2 1 30.8465 24.2362 46.3564 -0.00492578 -0.0021559 0.00494257
492 2 1 34.5106 26.1557 49.4115 0.00132624 0.00475748 0.00232139
1744 7 4 33.1535 24.0137 52.3086 0.00267778 -0.00369892 0.00255142
408 2 4 33.9231 28.5182 50.5084 0.000149246 0.0018441 0.00298576
420 2 4 33.2852 28.4451 51.197 -0.00233753 0.000302052 0.00412922
384 2 1 32.4729 27.8873 46.5141 -0.00129646 -0.000578261 -0.00220798
94 1 4 32.1411 28.6807 50.1871 -0.00443917 0.000469092 0.00119084
366 2 1 37.3082 25.0183 51.0781 -0.00193713 -0.00346266 0.00185884
2484 9 2 38.6281 24.5172 51.2796 0.00414883 -0.0102443 0.010179
191 1 3 37.5155 28.8472 50.1885 0.00424539 0.00509647 0.00304499
723 3 1 39.3951 26.5272 49.0836 -0.00196717 0.0021097 0.00686504
283 2 3 38.6251 28.8515 45.5521 0.000458435 0.00588341 -0.000923542
381 2 1 41.2569 24.1625 48.4341 0.00227837 -0.00291099 -0.00117115
91 1 1 44.292 24.8762 46.4627 0.000275616 -0.00066434 -0.000585302
86 1 1 44.3757 23.6423 49.6973 -0.000630123 -0.000463068 0.00221371
241 1 2 45.3416 28.4812 47.9971 0.0230514 0.00298368 -0.0448644
2789 10 2 48.3128 28.9989 49.943 -0.0152397 0.0278376 0.016142
712 3 4 48.2199 23.2189 46.3133 -0.000931257 -0.00070206 0.00397573
385 2 3 46.935 26.3037 48.3322 0.00501518 -0.00129451 -0.00137351
110 1 1 45.7468 25.8283 46.1118 0.00358471 0.000581703 -0.00245286
663 3 1 48.0104 29.787 52.2278 -0.00383182 -0.000969616 0.00135232
1075 4 2 45.0323 27.3446 52.2529 -0.0192703 -0.0109982 0.00627435
777 3 4 54.2231 23.0756 47.1497 0.00128924 0.00196464 -0.0033521
72 1 4 53.6387 28.2644 48.1735 0.00240108 0.00360776 0.00412422
649 3 1 55.1105 27.1336 46.3668 -0.000756611 -0.00119657 0.00192072
2481 9 2 58.0349 28.732 52.4725 0 0 0
973 4 4 1.74702 35.674 49.0562 0 0 0
1951 7 2 4.95591 30.671 45.7055 -0.0295556 0.0030384 -0.0219362
656 3 1 9.13603 37.4907 45.6102 0.00395001 0.00258987 0.00011569
1863 7 4 10.1 36.6345 48.7773 -0.00159918 0.000882986 0.0035773
1174 5 3 9.64323 37.1984 52.4216 -0.00846231 -0.00580143 0.00300023
1062 4 2 10.6859 30.943 51.049 -0.0161141 -0.0316304 0.0100848
229 1 2 19.4299 35.8991 52.174 0.0151268 -0.0112024 -0.0198656
1651 6 2 16.217 34.5522 45.5989 -0.00703321 0.0219541 0.029226
204 1 4 21.4499 33.2889 45.1428 -0.00321045 0.00709477 -0.00130767
117 1 1 21.996 31.1724 49.4516 -0.00535479 0.00433977 -0.00097295
1852 7 4 19.0121 36.618 46.4821 0.00218083 0.0027112 0.000502447
2403 9 3 27.7684 37.0838 49.1605 0.00273537 0.00071473 0.010485
1844 7 1 22.962 31.7386 48.2464 0.00250881 0.00175865 0.00190258
419 2 1 24.2484 31.2826 47.0928 -0.00660625 0.00170384 0.00309993
1723 7 1 28.8333 32.9144 48.3232 -0.00106188 -0.000159044 0.00410569
937 4 1 24.6876 35.5422 49.4759 -0.00661537 0.00109609 0.00588597
106 1 1 27.3698 31.4332 49.1272 -0.00466048 0.00260167 -0.00155553
1742 7 4 25.7251 34.3711 47.119 -0.00178438 0.00134042 -6.75953e-05
1509 6 1 28.7643 34.6749 51.1811 -0.00730748 -0.00307243 0.00705283
379 2 1 29.7904 36.4326 47.6198 -0.00247864 0.00152623 -0.00124287
14 1 1 23.8997 36.648 47.9286 -0.00430691 -0.0127072 -3.01543e-05
1699 7 1 31.7314 35.7737 46.5461 0.00143094 0.00389348 0.00771563
2808 10 2 36.078 37.4591 50.3337 -0.0120828 0.0128 0.0160547
1825 7 1 33.424 31.5427 48.6414 0.005188 0.00330266 0.00530058
1857 7 1 35.374 37.077 52.1969 0.00918761 0.0016816 0.00392556
82 1 4 40.3846 33.8388 45.6171 -0.00273336 0.00447592 0.00124484
921 4 1 44.0749 31.5015 45.6104 0.00482234 -0.00202779 0.00359895
1488 6 1 40.6454 35.2689 45.9238 0.00174336 -0.000819243 0.00540233
192 1 4 41.9073 33.0034 51.0536 0.0051461 0.00640855 0.00345345
1750 7 1 38.5757 37.3977 45.0079 0.00568587 0.00344546 -0.00127365
400 2 4 39.0263 33.1173 47.6719 0.00177893 0.00361852 -0.000998035
1734 7 1 41.9167 35.9892 49.1142 0.00454109 0.00132366 0.00233449
672 3 1 43.2834 35.5212 51.4455 -0.00461065 0.00208409 8.29967e-05
2347 9 1 38.8687 36.8432 45.1371 0.0105347 -0.00155033 -0.0103384
813 3 2 51.1534 32.678 49.4756 -0.0266074 -0.0227444 -0.0253737
249 1 2 46.9264 34.7623 50.8973 -0.0210983 0.0283625 0.0224485
2297 9 1 46.9264 34.4714 48.9303 0.00548976 -0.00230344 0.0100029
1215 5 1 52.2474 35.4684 46.3626 0.00309258 -0.00135864 0.00285824
395 2 1 47.3049 30.975 46.4932 0.00613997 0.0024972 -0.000661901
941 4 1 49.1138 34.14 47.9727 0.00259913 -5.08185e-05 0.00492227
591 3 1 51.4695 36.1764 51.5991 -0.0020562 0.0103761 0.00461845
376 2 4 47.4028 35.0767 48.8396 0.00392513 0.000246264 -5.21546e-05
691 3 4 51.0357 37.2639 51.8626 -0.000988936 0.00592875 0.00141583
360 2 1 48.5093 33.2588 47.6322 0.00172691 -0.000106094 0.00169048
1206 5 1 49.6811 37.1325 49.8575 0.00430323 -0.00092462 0.00385301
2019 8 1 54.4114 32.7445 47.5696 -0.00526142 0.00418019 0.00758426
402 2 1 54.038 32.5184 47.6371 0.00763762 0.00381137 8.00385e-05
690 3 4 55.1164 36.1006 47.8681 0.00228974 0.00472425 -0.000422764
1133 5 1 59.5023 33.0454 51.4855 0 0 0
1087 4 2 0.741058 38.4752 46.2555 0 0 0
662 3 1 0.767883 40.7174 46.9794 0 0 0
1361 5 2 0.585442 44.7153 47.7789 0 0 0
1891 7 1 11.7882 41.33 47.1974 -0.00260713 0.0056932 0.00813897
383 2 1 8.49757 41.512 49.9811 -0.0103258 0.00426678 -0.000559577
1640 6 2 10.3527 38.3331 48.9781 0.0149807 -0.0237527 -0.0103052
893 4 1 19.947 39.6634 48.1215 -0.0023276 -0.00349706 0.00424098
1160 5 1 16.6881 37.7683 46.0684 -0.00768677 -0.00784347 0.00196094
1076 4 2 19.323 38.9166 48.4014 -0.00491482 -0.0298866 0.00658458
2494 9 2 18.806 42.4919 50.4164 -0.00273761 0.00308274 -0.0115898
895 4 1 28.7968 37.6146 45.8239 0.00135074 -0.00382256 0.00352435
1836 7 1 22.9727 42.4709 49.7616 0.00126789 0.00644195 0.00370583
1196 5 3 23.4435 43.8133 51.3626 -0.0046494 0.000950125 0.00389186
2255 8 2 25.02 39.4809 45.5622 0.0044552 -0.020484 -0.0077755
1761 7 1 32.1807 39.3229 49.0456 0.00337188 0.00719154 0.00069945
1258 5 1 33.9962 43.9441 51.0057 -0.00423671 -0.00115035 0.00720587
364 2 4 37.0067 43.8949 49.1221 -0.0032265 0.00406598 0.000959223
2345 9 1 33.7659 38.7028 48.5091 0.00760835 -0.000388865 -0.00914077
1935 7 2 30.134 41.0235 45.4554 0.00338758 -0.0142946 -0.0223302
67 1 1 38.7234 38.7671 48.8993 -0.00274143 0.00809243 0.00519052
73 1 1 40.3027 38.1374 47.84 -0.00182972 0.00675018 0.00383922
749 3 1 38.7496 39.2376 47.342 -0.00173094 0.00772504 0.00175839
101 1 1 38.6815 39.1476 51.224 -0.000773395 0.00507064 -0.000256418
1735 7 1 37.9358 43.6123 50.8202 0.00358231 0.00370851 0.00237929
666 3 1 43.5104 42.2625 45.5957 -0.00583624 0.00473099 -0.00179013
1582 6 1 49.3845 42.6277 46.5593 0.00447819 0.00761669 0.0106397
339 2 1 51.4123 41.3825 45.8128 -0.000577471 0.00489902 0.00280312
444 2 4 46.3834 44.8548 45.1565 0.000439369 0.00725952 0.00574058
764 3 3 47.9816 38.4391 49.1166 0.00081703 0.00826605 -0.000839742
1198 5 1 48.0226 37.7816 51.8791 0.00496864 -0.00133095 0.00458084
368 2 1 51.6874 43.2896 52.0181 0.00375575 0.00355146 0.00175645
667 3 3 50.7244 44.585 51.268 -0.00254826 0.00540842 0.000213213
1848 7 3 58.9224 40.9575 48.9681 0 0 0
1218 5 3 54.7734 38.2908 48.6482 0.00326055 0.00015552 0.0034593
18 1 1 56.4242 43.0725 46.3888 0.0081469 -0.00952701 -7.40952e-05
1351 5 2 59.9632 37.9589 47.3869 0 0 0
1088 4 2 4.2339 50.7157 50.6873 0.0128832 0.0297155 0.00721491
1925 7 2 9.99946 45.4938 49.8519 -0.00734221 -0.0197989 -0.022246
1284 5 3 16.1227 51.8737 45.5822 -0.00548651 0.00217987 0.00508167
259 1 2 22.4674 49.1561 45.3252 -0.00629862 -0.0125079 0.00235087
2503 9 2 29.3883 52.0561 46.8447 0.0317873 -0.019906 0.0141555
1731 7 4 26.3033 49.3356 48.0425 -0.000682683 0.00586625 0.00284142
1200 5 4 25.2037 50.1875 50.3657 -0.00423293 0.0036294 0.00262148
1134 5 4 27.3157 52.3753 48.8286 -0.00958693 -0.00192909 0.00378465
1828 7 1 32.2628 50.9846 51.7537 0.00466874 0.0103366 0.00587109
897 4 1 32.1577 48.6959 47.7188 0.00279187 0.000536772 0.00482314
903 4 1 34.3539 52.0314 48.1466 0.00341195 0.00341458 0.00452423
917 4 1 35.0502 48.6677 51.4473 0.00162248 0.00461028 0.0062417
899 4 1 34.3187 48.9069 51.5681 0.00350388 0.00120558 0.00559565
1209 5 3 41.9544 47.0383 48.0082 0.000370548 0.00332891 0.00297089
1210 5 4 43.2892 47.9002 50.8313 0.000927268 0.00366129 0.00317293
1148 5 1 38.3599 52.3938 46.3843 -0.00183323 -0.00268129 0.0025257
28 1 4 40.4566 50.3945 47.85 0.000281821 -0.00561541 0.0015248
1112 4 2 39.1642 48.3137 51.0538 0.00514406 0.000849892 -0.0128589
446 2 1 47.0851 45.9513 46.6654 0.00141966 0.00791091 0.00726656
1269 5 1 46.483 49.549 46.3901 0.00328158 0.00181319 0.00450645
953 4 1 49.271 48.0694 47.9785 0.000481589 0.00452295 0.00611541
2805 10 2 45.7524 52.0413 52.2508 0.0144258 -0.00409347 0.0161583
1130 5 1 48.2103 45.6087 47.2386 -0.00164109 -0.00414091 0.00412586
1366 5 2 48.9141 48.6865 45.7448 0.00639844 0.0252934 -0.0221065
1220 5 1 57.0462 45.2165 45.8085 0 0 0
1270 5 1 59.3971 52.1385 45.3932 0 0 0
1530 6 1 53.1491 49.0996 50.959 0.00209364 0.00328386 0.0106356
1205 5 1 53.5753 52.4727 46.5696 0.00578173 0.00525108 0.00199025
1234 5 1 59.05 49.7792 51.2411 0 0 0
1135 5 1 1.90092 54.8569 45.5984 0 0 0
1821 7 1 11.6619 59.6787 45.4316 -0.00401523 -0.00932933 0.00484742
1099 4 2 9.69303 58.2043 51.9526 0.00963681 0.00714172 -0.0138166
1398 5 2 11.8655 56.736 51.6376 0.0153526 0.0016772 -0.0137142
1379 5 2 20.6531 53.2075 47.5137 -0.013376 0.0276026 0.00452546
1113 4 2 29.1216 54.1278 47.4167 -0.0240638 0.00448874 -0.0366845
880 4 1 29.8788 59.1594 45.9874 -0.000478461 0.00206896 0.00478494
908 4 1 24.7576 53.367 50.186 -0.000709768 0.0046948 0.00593202
1143 5 3 29.6812 57.7205 50.0404 -0.00600311 -5.09937e-05 0.00447817
1899 7 1 34.8612 59.1779 48.4246 0.00517087 -0.0100584 0.00942143
1217 5 1 30.7138 53.2456 45.9485 -0.00579088 0.00610506 0.00235218
1658 6 2 33.6454 55.6682 50.5853 0.0195966 0.0285845 0.00746134
1786 7 4 34.0596 53.0837 48.1126 0.00522346 -0.00742892 0.00333822
7 1 1 31.6548 53.8609 48.2329 -0.00094687 -0.00639043 -0.00125884
32 1 1 36.2413 56.1904 48.7945 -0.0010143 -0.00370503 0.00370299
211 1 1 31.6874 59.4834 52.3866 0.00105497 -0.00579865 -0.000534156
41 1 1 43.8972 58.6997 49.8671 0.000477664 -0.00273693 0.00572923
1252 5 1 42.1514 54.5365 50.2034 -0.00216422 0.0025586 0.00626574
1387 5 2 40.3621 56.6531 49.2006 0.000748446 0.00507764 -0.0183282
760 3 1 45.296 56.005 50.8029 0.000375611 -0.00940878 0.000997152
2762 10 2 46.0577 59.7313 47.6553 -0.0106149 0.0153293 -0.00943587
1165 5 3 45.1228 55.625 45.5927 0.00450952 -0.000272804 0.000660661
859 4 1 51.0335 55.5247 50.7892 0.00362898 0.000806678 0.00723407
2146 8 1 47.7179 58.36 51.8359 -0.00763322 -0.00409718 -0.00962005
127 1 4 54.1973 59.1849 45.295 0.00719732 -0.00737563 -0.00133081
587 3 1 57.2417 57.313 45.8964 0 0 0
1147 5 1 56.3842 58.4694 50.3626 0.00560608 0.000583356 0.00455106
1091 4 2 4.91768 5.56029 59.2986 0.0102419 -0.0117875 -0.0137421
180 1 1 7.0947 5.72884 54.0757 -0.00771052 -0.00431886 0.00696749
2357 9 1 14.8225 2.82292 59.8244 0.0020514 0.00729797 -0.00495383
523 2 2 12.035 0.785892 53.8867 0.0339012 -0.0130496 0.00360428
2159 8 1 12.2744 2.76497 55.0555 0.00103978 -0.00441241 -0.00652339
2187 8 4 14.1662 5.82494 54.2608 5.26264e-06 -0.00835162 -0.00439049
2434 9 3 10.9704 3.07146 57.574 -0.00217946 0.010333 0.0100052
2706 10 1 20.7532 3.488 59.609 0.00549407 0.0001608 -0.00593078
1749 7 1 20.3892 5.24504 59.5098 -0.0022939 -0.00897598 0.00428392
2728 10 1 24.1486 5.52949 58.4663 0.00572543 -0.002159 -0.00311466
2249 8 2 23.4846 5.81952 56.7554 0.00607904 0.0182746 0.0200594
1408 5 2 28.309 4.93628 56.1082 0.0143508 0.00415171 0.00701727
213 1 4 22.5612 3.29414 59.0635 -0.00305951 -0.00441434 0.00199421
3 1 1 27.803 7.47757 56.3951 -0.00285719 -0.000793373 0.00121123
1661 6 2 36.8864 5.51615 56.0773 0.0184858 0.0326717 -0.0127695
2500 9 2 36.9373 1.12748 58.8016 0.00798532 0.00950379 -0.00456498
1948 7 2 35.4492 2.25147 56.7259 0.00657527 -0.00746421 0.00931957
1771 7 1 31.0883 6.92484 52.9155 0.00306051 -0.00405247 0.00326862
738 3 1 31.9824 5.324 52.6194 -0.00331345 -0.005234 0.00641015
2744 10 1 31.8891 3.11654 56.3156 0.00756405 -0.00632618 -0.00324536
1275 5 3 36.4418 4.63371 59.1792 0.000681902 0.00755388 0.0095229
217 1 1 33.1324 5.91058 53.1729 0.000239754 -0.00211577 -0.000861642
116 1 4 35.9953 6.85489 58.9767 0.000833308 -0.00661804 0.00270747
1170 5 1 37.525 6.86823 54.1435 0.0016216 0.00503489 0.00354459
766 3 1 38.0731 5.03215 54.912 -0.00300157 -0.00480954 0.00103959
1157 5 1 45.8599 4.21706 53.2297 0.00345276 0.00256002 0.00477388
52 1 4 46.7663 6.9093 54.4948 0.00151372 -0.000817881 0.00843112
2223 8 2 49.5569 6.31581 59.5343 0.00928555 -0.00748928 0.0195497
1794 7 1 51.347 6.48576 56.3222 0.0109424 -0.0021153 0.0088221
21 1 1 45.8122 1.71269 56.3513 0.00358128 -0.00220932 0.00481892
567 3 1 51.8992 4.76558 55.7738 -0.00164392 -0.00385897 0.00119111
331 2 1 50.2853 7.21357 56.8841 -0.00163788 -0.00745977 0.00756125
1336 5 1 55.2183 6.54056 58.1689 0.00201493 0.00408863 -0.0122112
761 3 1 58.0647 6.26764 55.6754 0 0 0
2207 8 2 4.05674 14.4181 53.4136 -0.0246557 -0.00271277 -0.014103
576 3 1 2.25714 14.5281 59.1961 0 0 0
1859 7 1 7.33718 9.87977 58.6566 -0.00167073 -0.00918209 0.00693143
2216 8 2 11.5272 13.6376 56.6441 -0.0035219 -0.000709749 -0.0103992
2724 10 1 8.97271 11.9774 57.3486 8.06844e-05 0.00130296 -0.00385256
2742 10 4 7.59914 14.8082 56.6147 -0.00271714 -0.00088553 -0.00411933
1650 6 2 19.5914 12.4766 57.4114 -0.00518023 0.0148251 -0.0122062
1114 4 2 21.7063 13.739 58.9189 -0.0027459 -0.0133492 -0.00780445
828 3 2 21.0992 12.6226 53.0591 0.0138177 -0.00444537 0.00776002
2354 9 1 16.5827 9.2125 54.1769 0.00141309 0.009997 -0.00677806
2171 8 1 16.7865 7.52941 56.1669 0.00308901 -0.00475824 -0.00427843
2228 8 2 15.6627 13.3653 53.7344 -0.0254817 -0.00441869 -0.00696383
2236 8 2 28.4102 8.88087 54.8981 0.00581568 -0.00114525 0.013812
476 2 1 25.4372 13.0686 55.0807 -0.0031183 -0.00237055 0.00744869
27 1 1 26.3449 7.99187 55.9976 -0.00528804 0.00133115 0.00571466
559 2 2 26.3468 7.92774 54.8066 -0.00268607 -0.0036629 0.00425346
1371 5 2 30.3597 12.1884 56.5781 -0.00492452 -0.011053 -0.016862
6 1 4 35.5995 13.8486 55.6627 -2.50104e-05 0.00194824 0.000549463
220 1 1 30.7407 14.8714 56.8011 -0.0015589 0.000938951 7.24544e-05
1760 7 3 37.4816 11.3005 59.8422 0.00583984 -0.00443461 0.00503446
284 2 1 37.5784 7.67071 57.3953 0.00047135 -0.00261492 0.00343292
772 3 1 43.4443 13.0407 55.5675 -0.00129466 -0.00138091 0.000416594
1954 7 2 50.7816 8.79552 54.4151 0.0138223 -0.00708859 -0.0194212
267 1 2 51.0332 9.612 58.8256 -0.0154099 -0.0037896 -0.013491
1673 6 2 51.234 10.2085 52.7032 -0.0162784 -0.0317142 -0.0124815
97 1 1 53.7744 9.71361 54.0075 0.00461616 -0.00691016 0.0016034
2167 8 4 56.9894 12.0094 57.4389 -0.00420985 -0.00133225 -0.00400686
693 3 1 59.7174 13.1441 54.5312 0 0 0
2181 8 1 52.8515 8.80629 53.332 -0.00794419 -0.00610989 -0.00499922
770 3 1 59.6399 13.8623 55.0008 0 0 0
685 3 1 52.7073 13.2293 54.9759 0.000559725 -0.0043927 0.00188194
2173 8 1 3.88894 17.7952 57.6209 -0.00261002 -0.000778318 -0.00360643
678 3 1 4.71779 16.7405 57.0415 0.00412472 -0.00366701 0.00191018
298 2 4 0.115801 21.3195 56.5293 0 0 0
2106 8 1 13.9111 15.5081 58.2955 -0.00103117 -0.00107996 -0.006167
1596 6 1 10.5577 21.8435 58.6263 0.0104111 -0.0021278 -0.00743427
231 1 2 7.51331 20.8984 57.1658 -0.0137475 0.030373 0.0328135
84 1 1 10.3378 17.2135 55.6889 0.0101775 -0.00277781 0.00488317
2157 8 1 19.4242 15.2367 59.1417 0.00468449 0.00111507 -0.00466212
2108 8 3 17.7021 19.1386 57.6239 0.000966422 0.000403038 -0.00730045
546 2 2 16.339 22.4746 58.1018 0.0135084 -0.00306858 -0.0135741
163 1 1 16.7679 16.434 53.1464 -0.00644923 -0.000735584 0.00940294
664 3 1 21.3443 21.566 52.7631 0.00916772 -0.00381558 0.00154045
1847 7 1 21.1111 22.2186 53.2359 0.00187405 -0.00291657 0.00346595
2790 10 2 15.9987 18.0793 55.9382 -0.00382733 0.00114011 -0.00519192
1755 7 1 19.0897 21.4285 55.1616 -0.00207252 -0.00152298 0.00235945
1822 7 1 24.9659 18.8829 55.8773 0.00210516 -0.00112485 0.00887011
1835 7 1 27.5199 16.5111 54.4259 0.00328956 -0.00346235 0.00538157
1383 5 2 29.0673 20.2902 59.8701 -0.00639828 0.0122669 0.00999923
1846 7 1 22.9134 19.4392 56.0712 0.00281616 -0.00355913 0.00481967
1971 7 2 31.2014 21.679 58.9332 -0.022593 0.0229284 0.0142169
398 2 4 35.8185 18.6161 56.4797 0.00196098 -0.00269517 0.00347069
500 2 1 34.2935 20.5185 59.3936 -0.000898988 0.00221619 0.00376544
210 1 1 37.4306 21.2409 55.3525 0.00407945 0.00305515 0.0011378
588 3 3 35.9863 21.3048 55.2007 -0.00779748 0.0042647 0.00529706
2330 9 4 31.2902 21.9402 52.5612 0.00397369 -0.00472031 -0.00989871
1924 7 2 36.0932 21.1216 55.5425 0.00199048 -0.00434897 0.00515621
388 2 1 40.0219 20.6118 53.9134 0.00260757 -0.00314767 0.00102336
1350 5 2 48.8205 20.1482 53.462 -0.00287741 -0.0139347 -0.0171032
825 3 2 45.3684 20.8016 56.6463 -0.00215744 -0.000138957 0.0091273
579 3 3 51.3448 19.9259 59.614 -0.0014037 0.00303677 0.00490279
605 3 1 52.2257 22.4933 57.7284 -0.00183334 0.00439453 0.00981255
2548 10 1 57.0448 15.0229 57.8774 0 0 0
40 1 1 56.964 15.0422 56.2232 0.00561361 0.00379529 0.00771769
1374 5 2 54.9032 22.0276 52.965 -0.0200355 -0.00582736 0.00449882
2550 10 1 59.5183 16.4081 53.4371 0 0 0
2661 10 1 58.5426 15.186 56.3584 0 0 0
1603 6 4 57.3843 18.7272 54.1225 0 0 0
324 2 1 57.3942 19.7178 56.0894 0 0 0
771 3 1 58.3496 20.5525 59.8015 0 0 0
572 3 4 0.717497 23.1296 52.7629 0 0 0
593 3 1 9.91812 28.6378 53.4852 0.00584805 0.00723631 0.00550486
2233 8 2 14.34 24.8138 54.8661 -0.00097278 0.0277715 -0.00951878
2362 9 1 17.8344 24.403 57.652 0.00324698 -0.00885439 -0.00644198
1941 7 2 15.6949 23.587 54.2062 -0.00347806 0.0048088 0.0331653
669 3 4 15.0127 29.9644 56.6816 0.0065779 0.000263373 0.00251466
487 2 4 20.3253 26.8969 59.4009 -0.00431427 0.00471677 0.00804476
1739 7 1 16.8342 24.9077 54.0318 -0.00486111 -0.00259651 0.00273792
486 2 4 22.0312 23.5909 56.2068 -0.00457592 0.00212276 0.00586513
2734 10 1 29.1241 22.7488 57.1174 0.00656206 0.0038179 -0.00356702
291 2 1 28.2641 25.4141 54.3537 -0.00504037 0.00474404 0.00305226
1961 7 2 27.2258 23.147 58.5435 0.00634791 -0.0268212 0.00859259
2647 10 1 36.4556 27.9849 57.773 0.00391745 0.00385037 -0.00477119
140 1 4 30.2174 29.0703 52.5009 -0.00215665 0.00521212 0.00427835
403 2 1 34.1141 26.8376 52.7017 0.000116046 0.00140184 0.00296069
2235 8 2 32.3968 29.2214 56.2767 -0.0157661 0.00596496 0.0132515
2248 8 2 35.4759 25.2659 53.9813 -0.01454 0.0273475 -0.00555389
2222 8 2 43.4838 27.893 58.7026 0.00691633 0.0015932 -0.0309258
924 4 1 41.2702 27.7098 52.8621 0.00329567 -0.00326406 0.00734206
2653 10 1 43.4368 27.0375 56.5666 0.00843193 0.00401819 -0.00470935
124 1 1 43.3239 26.145 56.622 0.00324555 0.0031036 0.00314279
374 2 1 42.1647 28.276 56.7496 0.00107428 -0.00151158 0.00253943
1367 5 2 45.5296 22.7032 57.0022 0.00494944 0.0166065 -0.0186127
1594 6 4 48.5348 25.0701 58.861 0.0023211 0.000154451 -0.00730722
2770 10 2 45.4462 27.9746 57.7287 0.0143961 -0.0194282 -0.0114149
325 2 1 48.2156 23.1483 53.4503 -0.00245694 0.000736539 0.00669373
601 3 3 51.0017 29.3628 54.8544 -0.0024541 0.00736993 0.00770935
87 1 1 50.0929 26.0901 55.4121 0.00265555 0.000619256 0.00400406
779 3 4 50.6471 28.9299 59.1532 0.00120203 0.00531277 0.000746483
1490 6 1 58.3039 25.3549 58.0666 0 0 0
1396 5 2 55.5288 23.9071 56.3366 -0.0142585 -0.0112031 0.0119466
731 3 1 53.5332 24.8283 53.8117 0.00494088 0.00167173 0.00803347
322 2 1 56.5811 29.5716 53.0998 0.00124365 0.00398025 0.00594674
954 4 1 53.3265 29.6966 52.9365 0.00269498 -0.00245257 0.0087662
570 3 4 52.6083 23.5334 58.159 -0.00180306 0.00375817 0.00192759
355 2 1 55.761 25.9022 56.9278 0.00396 -0.0028811 0.00606433
566 3 1 57.9225 24.6419 55.0545 0 0 0
665 3 1 55.2706 24.8869 59.2291 -0.000614942 -0.00291246 0.00369683
2486 9 2 5.21671 33.0171 59.0681 0.0143491 0.0197632 -0.011006
2355 9 1 1.23253 30.6282 54.7225 0 0 0
2083 8 1 10.6044 32.9228 59.9231 -0.00564104 0.0034691 -0.00383158
1998 8 3 9.92804 34.2518 58.6831 0.00147602 0.00302993 -0.00825276
193 1 4 11.2039 32.5801 55.197 -0.00544842 0.00690165 0.00531639
2090 8 4 21.8841 30.7442 58.6789 -0.000151966 0.0037509 -0.00353563
1465 6 1 16.0466 31.5391 59.7124 -0.00439336 -0.00219236 -0.0100762
2629 10 1 21.9639 35.3492 59.6657 -0.00277765 0.00922367 -0.00663813
2351 9 1 20.8253 37.0685 59.1494 0.0030753 -0.00231059 -0.00468946
1759 7 1 19.9883 30.3635 55.1088 -0.00126949 0.002653 0.00296433
1356 5 2 23.421 35.3098 58.081 -0.00718402 0.0381187 0.0307396
1492 6 4 28.0043 35.288 55.4521 -0.00334067 -0.00210679 0.00875083
1764 7 4 23.9285 31.3609 59.3906 -0.000381403 0.00399234 0.00461583
2331 9 1 28.5336 30.1478 56.7134 0.00297143 -0.00224086 -0.00652943
224 1 2 29.9701 36.5981 59.1445 -0.0252524 -0.0135044 0.0038698
517 2 2 30.6889 30.8819 59.7763 -0.0336229 0.0254867 -0.0159655
951 4 4 34.3288 33.64 53.0672 -0.00470408 -0.00123122 0.00727966
2745 10 1 34.807 31.3222 55.1403 0.00798962 0.0046129 -0.00425428
1854 7 4 31.7436 33.9536 58.6986 0.00583865 0.000725446 0.00602983
105 1 4 36.812 36.1907 55.0186 -0.00183801 0.00514867 0.000885022
2512 9 2 43.0823 37.1889 59.8064 -0.0121351 0.0216772 -0.00886464
1598 6 1 43.3 30.8167 59.8517 -0.000712803 0.000960273 -0.00707971
1420 6 1 41.3142 36.327 58.8914 -0.00129754 -0.002264 -0.00656183
120 1 1 37.7539 32.8703 56.7062 0.000828741 0.00546372 0.00224929
265 1 2 39.6052 34.5909 58.399 0.00272568 0.00610035 0.0115652
1213 5 1 41.3306 32.5505 58.872 -0.000726956 -0.00261418 0.00780121
380 2 1 37.9473 35.1135 53.2979 4.33347e-05 0.001801 0.000660376
104 1 4 39.0205 36.5872 56.0153 -0.000335817 0.00364369 0.0016929
543 2 2 48.5313 36.8903 54.7943 0.00100293 0.0275601 -0.0160163
1344 5 2 49.7002 34.07 54.5431 -0.00173154 0.0150632 -0.0146715
694 3 1 47.2226 30.7164 53.4593 -0.00127257 0.00271295 0.00293732
1168 5 1 47.9295 36.3347 55.7317 0.00599141 -0.00759614 0.00449229
658 3 4 58.8648 30.4105 54.2891 0 0 0
673 3 1 58.0161 34.4014 59.2004 0 0 0
232 1 2 10.9912 43.7223 54.6452 -0.0132763 -0.0090523 -0.0175423
2203 8 2 17.3104 39.9901 59.5993 -0.0196006 0.00479002 -0.0094695
1357 5 2 15.0893 39.8118 53.8128 0.0149941 0.0167463 0.00364312
1635 6 2 19.8931 38.8464 59.2452 -0.00794315 -0.000624226 0.0173593
1689 6 2 16.6527 42.1703 56.2134 -0.0131485 -0.000707086 0.0165482
868 4 1 19.6544 39.4479 55.3598 -0.00728465 -0.00627564 0.00895633
767 3 1 20.0986 43.6673 59.4658 0.012991 0.0103349 0.0027031
1182 5 1 19.3782 38.3358 58.7933 -0.00429431 -0.00418367 0.00636573
2080 8 1 24.8913 40.6131 59.596 -0.000512677 0.00708646 -0.00452321
347 2 1 23.7924 44.5632 58.999 0.0134614 0.00486926 -0.0163792
2327 9 1 27.7807 41.4216 58.4219 0.00246308 0.00254622 -0.00628764
2802 10 2 22.6553 38.6297 52.7265 0.00384052 -0.00966134 -0.0338574
2206 8 2 28.8334 39.9935 54.1344 0.00829815 0.0059646 0.0109606
2515 9 2 23.6855 44.1918 53.6373 -0.0216418 0.0268459 -0.0108855
2343 9 1 23.7943 44.913 53.7765 0.00353692 0.00215919 -0.00758378
2428 9 1 31.8909 39.6892 57.513 0.00534237 0.00244368 -0.0140736
1382 5 2 33.8712 40.7161 57.7695 -0.0064059 -0.00278035 -0.0153326
2529 9 2 31.6644 38.5204 52.7224 -0.0175214 -0.00287343 -0.0158214
977 4 1 34.3535 39.3688 53.5179 -0.00185421 -0.00174206 0.00994996
1197 5 1 36.892 37.8051 52.5638 0.00038839 -0.00125798 0.00399751
373 2 1 37.1625 43.6047 53.5227 -0.000370205 0.00402308 0.00153668
952 4 1 36.6191 40.1274 59.3856 -0.00419474 0.00173056 0.0108234
930 4 1 42.311 40.0295 56.6623 0.0023856 0.00219581 0.00855814
1214 5 1 43.6243 37.8535 54.9632 0.000210533 0.000144601 0.00550488
399 2 1 43.0743 39.9761 59.7787 0.00371252 0.00658644 0.00469268
1422 6 1 40.7521 44.4005 55.1111 -0.000999555 0.000844987 -0.00790795
422 2 4 38.3943 41.2937 58.7161 -0.000811467 0.00707747 0.00775522
564 2 2 48.2884 41.0206 56.1589 -0.0189375 0.0101742 -0.02227
925 4 1 48.5038 39.5081 53.1127 0.00570712 0.00164483 0.00672146
944 4 1 50.1829 38.4149 58.3839 0.00257758 0.00132515 0.00906038
671 3 1 51.4495 42.5792 57.391 -0.00207339 0.00523087 0.00191478
2783 10 2 54.596 44.1944 54.2839 -0.0125012 0.0369882 0.0150456
708 3 1 57.908 38.2719 55.8636 0 0 0
2346 9 3 13.3648 45.1564 54.3309 -0.00020768 0.00177217 -0.00662802
2536 9 2 19.1558 46.1889 53.3784 0.000542314 0.020498 -0.0109226
1982 8 4 16.5968 46.0551 56.7982 0.00169872 0.00732763 -0.0048159
1831 7 1 19.6463 45.6673 56.3181 -0.000254289 0.00812933 0.00716486
2356 9 1 22.2376 46.5277 53.1221 0.00418305 0.000733494 -0.00734278
1928 7 2 15.7116 45.4785 59.4942 -0.00355814 -0.018387 0.00493448
2336 9 1 29.3081 51.981 57.2456 0.00463686 0.00628241 -0.00668935
1732 7 1 23.5518 46.5358 56.2129 -0.00263088 0.00504872 0.00537758
88 1 1 26.0674 48.7861 55.8128 -0.00787745 0.00940125 0.00413872
2326 9 1 32.7798 50.463 58.9163 0.00443352 0.0065224 -0.00690108
1178 5 4 30.141 52.4692 53.352 -0.000539182 0.000680471 0.00256918
1256 5 1 32.3891 50.4744 57.1864 -0.00515598 0.00103255 0.00943976
302 2 1 37.2336 45.0607 52.8815 -0.00301337 -0.0113685 0.00406059
1437 6 1 33.6051 50.852 55.1052 0.000102031 0.00391121 -0.00765912
2218 8 2 32.1663 45.9882 52.5585 0.00243693 -0.0131915 -0.0119666
1014 4 1 42.8806 51.5475 57.852 0.00631703 0.00235381 -0.00908
238 1 2 43.2573 50.0195 53.3891 -0.000157483 -0.0103302 0.0313024
1535 6 3 40.4864 49.4886 56.3054 -0.00230463 0.00466585 0.0131234
1190 5 1 38.3408 47.8966 57.9825 0.00249711 0.00143624 0.00613059
919 4 1 51.978 47.8713 55.3312 0.0083968 0.00431653 0.00835047
1917 7 2 48.7866 51.8876 59.1569 0.00850623 -0.0149589 0.0106256
2197 8 2 59.5921 48.3227 59.9145 0 0 0
1536 6 4 54.8137 51.0581 58.7144 0.00278908 0.00594044 -0.0101074
244 1 2 1.57366 53.7658 57.1702 0 0 0
2684 10 1 12.5272 59.3393 58.8397 -0.000495523 -0.00348869 -0.00769132
2796 10 2 8.69479 52.5874 55.8278 -0.00382608 -0.00739544 0.0174367
1778 7 1 14.8675 56.2114 54.6159 -0.0032886 -0.00726265 0.00453916
1669 6 2 16.4414 55.3774 54.5591 -0.00897742 -0.0152782 0.0109305
2655 10 1 21.6232 56.8231 54.4009 -0.000277101 -0.00842434 -0.00599884
2602 10 1 27.9594 56.2395 57.0282 0.00489656 -0.0046934 -0.0111127
2285 9 1 27.3703 54.791 56.7156 -0.000846282 0.0036784 0.0124015
989 4 1 29.0583 56.4809 55.1764 -0.00134628 0.00603594 0.0105918
501 2 1 26.5337 54.1948 56.3257 -0.0030701 -0.00771409 0.00270309
1299 5 4 41.816 53.979 58.022 0.00448001 0.00111239 -0.0123512
839 3 2 40.9415 52.6592 58.6403 -0.001447 -0.00931433 -0.0204551
1192 5 1 39.2479 54.6597 55.7607 0.00252995 0.00406189 0.00568826
795 3 2 47.7325 52.8972 57.4163 -0.00332221 0.0168593 -0.0142791
305 2 1 58.5878 56.0935 53.8533 0 0 0
2704 10 1 56.2619 55.4053 55.8543 -0.00449804 -0.0028607 -0.00790269
ITEM: TIMESTEP
10000
ITEM: NUMBER OF ATOMS
2820
ITEM: BOX BOUNDS pp pp pp
0.0000000000000000e+00 6.0000000000000000e+01
0.0000000000000000e+00 6.0000000000000000e+01
0.0000000000000000e+00 6.0000000000000000e+01
ITEM: ATOMS id mol type x y z vx vy vz
2153 8 1 7.33981 6.55436 5.48411 0.00231517 -0.00621324 0.00891659
2473 9 1 4.33087 6.66566 0.928401 -0.00232926 0.00352831 0.00547779
811 3 2 0.265681 8.27912 58.2626 -0.0108663 0.00424181 -0.0107736
2164 8 1 14.4446 0.742007 4.09646 0.00122292 -0.0029028 -0.000863109
2477 9 1 14.007 1.03273 2.5026 -0.000253398 0.000820547 -0.00386388
1075 4 2 24.8902 50.0533 8.89549 0.0341018 -0.0314488 0.0109476
2329 9 1 11.6294 1.8776 6.53808 -0.00184133 -0.00656408 -0.00173798
1878 7 1 10.9764 4.95938 3.76085 0.000853306 -0.00444744 0.00613467
2702 10 1 22.7667 3.58505 58.4546 0.00301495 7.32091e-05 -0.00367487
2350 9 4 22.4377 7.0314 5.98966 0.00211913 0.00546968 -0.00103827
559 2 2 19.6316 58.7705 5.44028 -0.00268607 -0.0036629 0.00425346
1113 4 2 26.5313 8.27289 5.85008 0.0150947 0.0112055 -0.00283469
2199 8 2 15.567 58.6456 5.59973 -0.0106992 -0.0174391 0.00996355
598 3 1 32.6379 5.86334 3.91496 0.00734998 -0.000952132 -0.00670281
796 3 2 22.163 2.45155 0.91579 -0.0073904 -0.00205889 -0.00689164
2280 9 3 28.1937 4.56899 4.42421 -1.16532e-05 0.0034222 -0.00421656
908 4 1 22.9832 5.10402 5.01608 -0.000709768 0.0046948 0.00593202
260 1 2 18.9309 59.829 7.62005 -0.0141033 -0.00945318 0.0114736
613 3 1 34.6975 2.19067 7.50719 -0.0047091 -0.00291747 0.00734164
2642 10 4 35.2585 5.84567 1.25659 0.00110651 -0.00168947 -0.00199928
1508 6 1 28.4863 6.76684 2.58356 -0.00332214 0.00464017 -0.00601969
245 1 2 34.8766 2.46362 12.9488 -0.00152308 -0.00439228 0.0174118
284 2 1 38.7567 1.13342 5.9776 0.00047135 -0.00261492 0.00343292
1192 5 1 45.5727 4.81443 9.9813 0.00252995 0.00406189 0.00568826
1237 5 1 38.1862 8.5839 58.3889 -0.00305737 0.00503918 -0.00749182
242 1 2 51.8482 3.92223 4.11807 0.0109573 -0.00132712 0.00148296
2136 8 4 47.0746 4.05456 5.76681 0.00772851 -0.00155709 -0.00328384
1015 4 3 45.8002 6.59352 4.67852 0.00367225 0.0043431 -0.0029641
1675 6 2 51.5641 5.1241 55.3098 -0.0158672 0.0221455 0.0149339
933 4 1 40.7716 5.12945 2.73741 0.00043253 0.00609769 -0.00632892
2109 8 1 52.0839 3.60175 1.50617 0.00522436 0.00247808 -0.00121525
1054 4 1 52.2937 3.58286 3.62398 0.00181295 -0.003739 -0.00442299
2593 10 1 48.8533 3.36813 1.99007 -0.00100726 -0.00220328 -0.00442351
209 1 1 51.2665 4.13612 6.43368 -0.00370781 -0.00587384 -0.00188162
1157 5 1 48.9294 4.09056 59.7506 -0.0026926 -0.00448009 -0.00140685
767 3 1 51.7027 8.3787 6.44836 0.00327028 0.000679183 0.00401302
703 3 1 50.0596 59.788 59.8163 -0.000165483 -0.00444601 -0.00813094
335 2 1 43.9917 4.67605 3.67882 -0.00205885 -0.00447619 0.00499276
446 2 1 50.6343 5.72856 4.83178 0.00141966 0.00791091 0.00726656
2697 10 1 53.646 7.46603 3.62031 0.00353356 0.000728414 -0.00260186
1121 4 2 58.7517 7.0898 5.41858 0 0 0
2670 10 1 6.11884 8.38827 8.31835 0.0048337 -0.00678605 0.00130431
2710 10 1 5.51502 11.4035 0.91793 -0.00322402 -0.00311926 0.00588294
1359 5 2 0.329627 14.6053 5.26558 0 0 0
2150 8 1 4.50438 13.9361 8.40276 0.00181516 -0.000691412 -0.00097253
1859 7 1 6.57706 10.1188 3.61984 0.0019643 0.00221834 -0.00192708
2820 10 2 6.38835 8.54253 1.12525 0.0186503 0.0348119 -0.00528724
2167 8 4 59.0384 17.9722 2.23555 -0.00365503 0.00753563 0.00242805
88 1 1 9.91048 10.4407 6.16189 0.00306613 0.00314408 0.00419269
2618 10 1 13.4078 10.747 1.32467 -0.00205403 0.000397596 -0.00378047
1295 5 1 11.2855 14.6715 3.81325 -0.0037147 0.00528969 -0.00473295
1800 7 1 10.3948 9.09923 5.34328 -0.00218204 -0.000713154 0.00662526
27 1 1 13.1248 11.3197 10.2843 -0.00528804 0.00133115 0.00571466
173 1 1 16.5297 8.77843 4.4624 -0.00248185 -0.00189331 -0.00567352
1119 4 2 19.3297 7.60514 54.0008 -0.00419986 -0.00836617 -0.017258
2754 10 2 30.3007 16.7689 3.00295 0.00297394 0.0105668 -0.000171811
2579 10 1 26.2437 13.5938 59.4935 0.00389153 -0.000167847 -0.00536309
1529 6 1 20.5233 5.96904 59.7182 -0.00579995 -0.00651639 -0.00502297
1846 7 1 29.9538 10.5413 8.12037 0.00281616 -0.00355913 0.00481967
2223 8 2 23.2361 12.5227 5.36297 -0.0121757 0.00328713 0.00100439
1649 6 2 36.9761 11.887 3.30661 0.0190894 -0.00469578 -0.00736607
901 4 1 29.3726 3.5421 3.59178 0.000784718 -0.00825458 0.00538136
84 1 1 35.7816 10.269 7.89684 0.0101775 -0.00277781 0.00488317
2739 10 1 32.9045 12.9028 1.5958 0.00383509 -0.000922649 -0.000872641
2096 8 1 32.1425 7.55522 1.28891 0.00275011 -0.00301056 -0.00182782
2614 10 1 39.0293 10.6509 57.9831 0.00347726 0.000584371 -0.00467038
2640 10 1 34.1853 7.86372 1.98232 0.00115085 -0.00176926 -0.00225034
1693 7 3 36.772 6.43007 1.70213 0.0016076 -0.00358599 -0.00483537
1835 7 1 35.7438 7.85524 7.87986 0.00328956 -0.00346235 0.00538157
236 1 2 24.3806 9.2598 5.50434 -0.0161069 0.00110759 0.00203555
1917 7 2 22.1023 21.6078 8.9185 -0.0176457 0.0218678 0.00522088
722 3 1 41.3678 7.07065 4.62816 0.0110262 -0.00262787 -0.00552857
1935 7 2 38.6029 5.28692 49.6298 0.00338758 -0.0142946 -0.0223302
1828 7 1 43.9347 16.8262 6.43144 0.00466874 0.0103366 0.00587109
1566 6 3 45.637 6.19081 59.5224 0.0024984 -0.00417504 -0.00490251
1924 7 2 41.0694 10.2492 8.43307 0.00199048 -0.00434897 0.00515621
465 2 1 38.1185 7.03801 0.328628 0.000606097 -0.0029078 -0.00620647
398 2 4 40.7209 11.8782 5.15643 0.00196098 -0.00269517 0.00347069
272 1 2 32.3907 12.1733 5.37348 -0.0132312 -0.003093 -0.00239451
15 1 3 49.2489 12.0322 7.04865 -0.00105376 -0.00110992 0.00125013
1976 8 1 46.7309 11.9699 0.986502 -0.00582025 -0.00255371 -0.000413207
2671 10 1 49.6517 14.4456 7.08345 -0.0117252 -0.00804072 0.000904367
2676 10 4 47.3523 6.70792 4.92587 -0.00247103 -0.00297262 -0.00339968
1357 5 2 51.1822 19.8278 1.93944 -0.0188099 0.00370187 -0.000708675
1142 5 1 50.8199 13.3129 4.92502 0.00113819 0.00319499 0.0054528
2801 10 2 58.7432 13.0312 4.29422 -0.0326253 -0.0104574 -0.00834418
1364 5 2 53.2814 7.08061 -0.00907626 -0.00683144 -0.00833233 -0.00608807
1097 4 2 4.34918 17.1446 8.24706 0.017108 -0.0190063 -0.0096854
2099 8 3 1.30646 10.2155 4.5998 0.00319827 -0.00404267 -0.000418598
2740 10 1 55.9025 11.6915 6.62687 -0.00300483 -0.00252625 -0.000487994
1108 4 2 1.64755 18.4561 2.13241 0 0 0
2707 10 3 2.91452 21.6147 7.30906 0 0 0
1946 7 2 1.57856 17.2808 0.833009 0 0 0
92 1 1 0.750465 22.1208 0.958992 0 0 0
163 1 1 7.29005 16.5438 7.42797 0.00155245 -0.000477768 -0.0114888
2504 9 2 12.9765 12.3965 57.5621 0.0169348 -0.00750821 -0.0234923
277 1 2 53.0544 25.1305 2.7898 0.00976625 -0.012288 0.0020266
497 2 4 11.8901 17.9027 3.04421 -0.00363077 0.00111154 -0.00825696
1110 4 2 5.41504 13.5574 54.2061 -0.0360841 -0.0310451 0.0167382
174 1 1 12.1407 16.6152 6.34877 -0.00318786 0.000120632 0.00677395
1703 7 1 17.3231 23.5321 59.0987 -0.00246978 0.0111702 -0.00595207
2461 9 4 16.4988 20.3243 8.82364 0.000658953 0.00607706 0.00751193
196 1 1 21.4565 23.4894 59.6865 0.00842648 0.00247448 -0.00585782
2061 8 1 16.9097 19.9756 0.441416 -0.00158967 0.000157919 -0.00367092
287 2 1 19.132 17.608 55.4738 -0.00407541 0.000756208 -0.0102962
114 1 1 19.2836 14.6256 54.6021 -0.00338647 -0.00127349 -0.0116292
2294 9 4 22.2824 19.4067 2.56412 -0.00218191 0.00703354 -0.00400078
2401 9 1 29.422 14.6889 1.36706 0.00867752 -0.0021652 -0.00491387
2112 8 4 25.516 19.5173 59.3029 0.0016428 0.000487269 -0.00340862
2785 10 2 23.3111 10.5989 12.1099 -0.00132078 -0.0124042 0.011704
1847 7 1 25.7963 14.9272 1.90073 0.00187405 -0.00291657 0.00346595
2502 9 2 23.6512 18.5183 18.1683 0.00166664 -0.00409733 0.0257569
2380 9 1 34.5143 15.7724 3.62564 0.00398965 -0.00615392 -0.00346707
462 2 1 32.0927 15.5375 7.91708 -0.00969685 -0.00106959 0.00171746
1034 4 1 34.8791 16.655 2.31176 -0.000476972 -0.00604881 -0.00335325
302 2 1 29.7001 16.6395 3.03297 -0.00301337 -0.0113685 0.00406059
2246 8 2 35.1786 26.5403 7.04966 -0.00628168 0.0147095 -0.000390068
154 1 1 38.7342 19.4413 58.0125 0.00039544 8.94674e-05 -0.0069541
1630 6 1 42.1967 18.9406 58.0874 -0.00149825 -0.00549609 -0.00394893
1170 5 1 41.579 19.4555 3.00497 0.0016216 0.00503489 0.00354459
1478 6 3 41.6249 14.9994 3.49595 0.00186818 -0.00428212 0.00661499
1408 5 2 41.6449 20.7921 6.39958 -0.0105827 0.0102467 -0.000911067
1188 5 4 47.5962 17.2653 6.36952 -0.0034031 -0.000983652 -0.000701071
1915 7 2 47.3427 19.6591 11.688 -0.0056698 0.0076946 0.00868679
1643 6 2 36.0698 22.4491 15.8784 -0.0217712 0.00753111 0.0217392
1584 6 1 49.7228 22.2301 59.1379 0.00223275 -0.000305986 -0.00389461
2792 10 2 50.2247 17.4705 2.62639 -0.0123714 0.00517915 0.0115767
261 1 2 48.1683 7.3471 14.5166 -0.00296217 -0.0163549 0.01942
2177 8 1 58.0988 16.8811 54.0019 -0.00368186 0.00279229 -0.0126026
40 1 1 56.4712 13.1925 5.41576 0.00430653 -0.000324086 0.00083834
2774 10 2 2.83661 17.7525 0.373074 -0.00460496 0.0134715 0.000880759
2137 8 1 1.22331 28.5158 3.31769 0 0 0
2575 10 3 58.5543 30.477 4.53406 -0.00702159 0.0100496 3.36731e-05
2583 10 1 0.556331 27.1328 5.55739 -0.0132344 0.00101013 0.00404188
1743 7 1 12.3156 32.9546 3.43865 0.00219451 0.00852722 0.00209477
2566 10 4 11.9959 23.3551 1.61762 0.000683181 0.000379612 -0.00385128
2447 9 3 11.9909 25.8254 0.986272 -0.00050721 -0.00352432 -0.00602415
1509 6 1 10.4956 26.9939 8.81313 -0.00730748 -0.00307243 0.00705283
1975 8 3 20.1064 28.1228 2.92727 0.00148127 -0.000366239 -0.00129535
1562 6 1 16.4159 21.9442 57.7878 -0.00376841 -0.00151215 -0.00561985
1580 6 4 18.1002 26.7084 0.790397 -0.00377117 0.000883275 -0.00430412
867 4 1 16.3174 33.8655 0.958981 -0.00417872 0.0081741 -0.0062196
588 3 3 16.4926 31.9665 8.44331 -0.00779748 0.0042647 0.00529706
568 3 1 34.241 28.5035 5.04293 0.0101877 0.00526885 -0.000114246
2035 8 4 29.4167 29.7425 0.965743 0.0135984 0.00168254 -0.00681734
2627 10 1 24.5624 25.9206 6.24315 -0.000568715 0.00283212 -0.00238297
1471 6 4 27.1102 28.4605 3.81763 -0.000318552 -0.00111711 -0.00429267
2450 9 1 29.1261 25.783 2.9749 0.00298022 -0.00380499 -0.00555422
2786 10 2 23.2336 17.4408 51.0106 -0.000926875 -0.0118156 -0.0290017
500 2 1 32.0461 26.0589 8.8072 -0.000898988 0.00221619 0.00376544
2084 8 1 33.8278 23.496 3.52399 0.00188876 0.000327803 -0.0012216
2474 9 1 32.7934 33.7361 7.61265 0.00312587 0.00765342 0.00924493
325 2 1 42.0733 24.9897 10.1847 -0.00245694 0.000736539 0.00669373
374 2 1 44.8504 24.4971 3.09814 0.00107428 -0.00151158 0.00253943
653 3 1 39.8938 28.7431 56.0774 -0.00571284 0.00199481 -0.00858596
1046 4 3 45.4528 28.0432 59.4463 0.000236366 0.00793864 -0.00459793
2756 10 1 48.8354 28.3604 59.8713 0.00630268 0.000564276 -0.00205314
2383 9 4 49.3618 22.6325 58.3582 0.00673036 -0.0048027 -0.00441656
579 3 3 45.5045 26.1492 4.32421 -0.00242327 0.00268799 0.0020144
2662 10 1 51.9723 22.972 3.04421 0.00114071 -0.0049214 0.00767274
2818 10 2 40.2272 25.1163 4.33661 -0.0153603 -0.00187429 -0.00257591
2522 9 2 52.4344 24.9801 0.959288 0.00530391 0.00787314 0.0133649
1996 8 1 51.67 24.6085 0.483824 0.00324643 -0.00106522 0.00119723
696 3 1 54.699 26.941 7.98302 0.00191654 0.00102035 0.00359417
570 3 4 54.7963 22.7235 1.68989 0.0020105 0.000723947 0.00232305
2534 9 2 55.9968 31.4092 0.119325 -0.00422018 -0.0184251 0.00580572
2352 9 4 1.74578 34.3342 2.83433 0 0 0
2083 8 1 7.2532 36.8055 1.01145 0.00966876 0.00344416 0.00373896
522 2 2 9.23156 45.393 58.4189 -0.00764549 0.0269972 -0.00816262
275 1 2 35.1593 35.1675 57.4441 0.042371 -0.00198049 -0.0117415
1700 7 4 8.54933 31.7968 58.41 -0.00517777 0.00335516 -0.00695019
2814 10 2 8.51828 49.4458 59.27 -0.00670253 0.0293786 0.00349386
2620 10 4 12.0149 31.9096 1.82547 0.00387158 0.00260483 -0.00662871
475 2 4 8.85777 32.1855 4.43579 -0.00467241 0.00259763 -0.00584239
1324 5 1 9.53577 33.7458 3.74189 0.00267419 -0.00570803 0.00180213
1941 7 2 10.3504 35.8757 14.6311 0.00238331 0.00524128 0.0288092
222 1 2 24.0173 39.6055 0.780134 0.00994553 0.0120893 -0.00482622
1759 7 1 16.8145 36.996 2.51965 -0.00126949 0.002653 0.00296433
291 2 1 15.6631 37.2742 1.98431 -0.00504037 0.00474404 0.00305226
1989 8 3 28.2871 31.8464 2.18062 0.00391702 0.000742071 -0.00244288
669 3 4 31.4575 30.6229 2.96829 0.0065779 0.000263373 0.00251466
2570 10 1 31.6725 34.3831 4.2668 0.0049735 0.00345301 -0.00342544
1100 4 2 24.1045 43.3362 57.332 -0.0042357 0.0121842 -0.0187454
1607 6 1 37.309 37.6103 1.47465 0.009872 0.000903263 -0.00284847
2656 10 4 36.3904 33.5052 5.38936 0.00248547 0.00289343 -0.00103673
1502 6 1 35.0139 30.0913 58.4221 -0.00158862 -0.00249474 -0.00702398
858 4 1 33.6067 37.1206 4.92311 -0.00184206 0.00894752 -0.00521438
362 2 1 36.3403 37.2629 59.8875 -0.00132814 0.000729984 -0.0088345
723 3 1 34.4772 31.8015 6.2462 -0.00196717 0.0021097 0.00686504
2023 8 1 44.0431 31.3661 7.65328 0.00675302 0.00221401 0.00754386
1197 5 1 37.863 34.6601 2.55753 0.00038839 -0.00125798 0.00399751
224 1 2 48.9142 33.1244 7.03097 -0.0150259 -0.00607274 -0.00647464
794 3 2 51.0262 27.2008 58.3201 0.010191 -0.00795703 -0.00787869
2397 9 1 51.7837 33.1778 3.71516 -0.00166912 -0.00302528 -0.00130094
1030 4 4 51.0392 33.7316 3.11576 -0.00358296 0.00182514 0.00100383
346 2 1 48.2404 35.0251 55.8566 -0.000242118 0.000987013 -0.00853228
124 1 1 51.324 33.4605 4.11043 0.0012765 0.000365178 -0.00050937
2530 9 2 51.2386 33.6248 3.99876 0.0147136 -0.0182204 -0.0171546
531 2 2 52.8052 35.2139 5.79351 0.000366565 -0.00104517 -0.00998201
382 2 1 55.0494 30.8754 4.82291 0.00580091 0.00470292 0.000758048
670 3 1 54.455 29.7528 5.15464 0.00123221 0.00707826 0.00141073
387 2 4 55.0921 37.5076 1.76154 0.00196548 -4.6155e-05 0.00272735
2559 10 1 54.9392 30.575 8.15251 -0.00110474 -0.00243586 0.000329341
1633 6 2 48.1755 37.4779 59.3118 -0.02062 0.0105838 -0.00142277
216 1 2 3.88917 28.9845 57.5322 0.00873735 -0.032756 -0.0160857
998 4 1 6.24712 38.5936 10.4002 0.00133269 -0.00490247 0.0142096
1898 7 1 6.02618 39.9186 2.25726 -0.000167226 -0.000868607 0.000817921
2748 10 1 10.5066 41.47 4.33852 -0.000661078 0.00407161 6.97043e-05
2114 8 4 15.1262 47.5612 1.55482 0.000413831 0.00576685 -0.00290784
866 4 1 11.0982 44.9949 56.2228 0.00227567 0.00545042 -0.00901229
2037 8 1 10.1724 40.5913 0.400029 0.000857671 -0.00607892 -0.00645295
1778 7 1 15.3686 42.1613 3.68101 0.0100167 -0.000863325 0.00149671
937 4 1 7.97983 37.8679 3.38503 -0.0031351 -0.00289508 0.00442115
827 3 2 6.17638 38.1197 4.6626 -0.000885024 0.0182243 -0.023398
1076 4 2 7.66194 36.9186 6.26066 -0.00839418 0.012115 0.0345702
593 3 1 24.5382 46.7286 7.24732 0.00584805 0.00723631 0.00550486
501 2 1 18.8585 34.9096 3.08346 -0.0030701 -0.00771409 0.00270309
1812 7 1 19.7629 43.7218 3.02685 0.00662883 0.0013204 -0.00621742
193 1 4 20.8686 44.6072 2.15401 0.0079277 0.00535787 0.0027661
2733 10 1 26.5718 44.0787 6.78179 0.00322896 0.00601855 0.000157957
2287 9 1 27.5489 40.374 0.477445 -0.000737811 -0.001126 -0.00471551
1258 5 1 23.4045 41.0682 9.02036 -0.00423671 -0.00115035 0.00720587
2273 9 4 28.0695 36.5078 3.1575 0.0012007 -0.00265623 -0.0045933
280 1 2 25.2669 46.8047 19.9885 -0.00211841 0.00698414 0.0290049
140 1 4 24.8257 42.1006 3.19673 -0.00215665 0.00521212 0.00427835
1682 6 2 14.6394 49.6434 4.26421 -0.0164212 0.0141807 0.00761201
1552 6 1 30.8795 39.4323 0.538004 -0.0014179 0.00112166 -0.0045688
1619 6 1 33.131 41.6722 0.362805 -0.0036126 0.000500248 -0.00318364
2749 10 1 38.8002 38.2116 6.69203 0.00466163 -0.00878327 0.000333606
1699 7 1 35.3087 45.5074 5.83515 0.00143094 0.00389348 0.00771563
1423 6 1 41.773 45.0967 2.40851 5.48039e-05 0.000316536 -0.0023769
1214 5 1 44.1507 38.215 8.72538 0.000210533 0.000144601 0.00550488
806 3 2 37.4427 34.154 57.7003 -0.00345925 -0.0108114 -0.00780454
120 1 1 39.8257 46.5296 2.32945 0.000828741 0.00546372 0.00224929
2503 9 2 34.631 43.1837 11.949 -0.0101489 0.00354666 0.00960023
843 3 2 43.0952 34.0028 58.5213 0.00993265 -0.00819223 -0.0113897
1379 5 2 51.5399 28.2464 10.0157 0.00584972 -0.00546355 -0.00942019
779 3 4 49.4743 42.7168 0.57296 -0.000692716 0.00554114 0.000544224
1911 7 1 46.8717 47.0549 1.9316 0.00375734 0.00494558 -0.00417328
1899 7 1 47.7884 34.0319 11.9782 0.00517087 -0.0100584 0.00942143
2349 9 1 51.701 38.6889 2.19418 -0.00590029 -0.00772526 0.00264367
1412 6 1 48.5235 40.9166 1.96386 2.73085e-05 -0.000814284 -0.00287983
1198 5 1 45.9233 42.0882 6.69746 -0.00275765 0.0027101 0.0063744
2487 9 2 58.384 41.047 0.0127171 0 0 0
2531 9 2 57.9987 42.6625 1.07508 0 0 0
687 3 1 55.8318 42.4922 4.19689 -0.00192298 -0.0031176 -0.00636726
2712 10 1 0.851169 45.1983 1.88268 0 0 0
2092 8 4 14.0805 47.9803 4.65446 -0.00158211 0.00460786 -0.00113171
1557 6 3 6.3688 48.935 5.72096 -0.00529365 -0.00369305 0.0021903
2664 10 4 12.8176 47.366 3.69241 0.00830617 -0.00965177 0.00497458
1102 4 2 22.2607 56.2677 3.40803 0.0434154 0.0111411 -0.00767216
2711 10 1 21.562 48.4121 2.28385 0.00253261 -0.00289697 -0.00183443
2064 8 3 21.6548 42.4487 59.2843 -0.00104005 -0.00760046 -0.00377835
2654 10 4 17.4194 44.4902 5.79474 0.00459653 -0.00981985 -0.00106804
2682 10 1 28.6417 48.6936 58.2405 0.00280794 -0.00404068 -0.00382391
850 4 1 21.659 49.043 3.78367 -0.0049054 -0.000375395 -0.00531987
848 4 1 22.7158 49.0952 4.29312 -0.00515484 -0.00027697 -0.00539138
2765 10 2 24.3583 39.7417 8.39912 -0.00907673 -0.0197721 0.0101434
2127 8 1 25.9875 50.8962 4.58393 -0.0090299 0.00772464 -0.00369421
549 2 2 40.0088 48.0847 57.2831 -0.00465408 -0.00878857 -0.00574228
899 4 1 43.0784 51.9209 5.55726 0.00350388 0.00120558 0.00559565
9 1 1 52.5949 48.7952 3.67334 0.00123856 -0.00468973 0.00132433
720 3 3 50.559 45.1147 4.92537 -0.000590156 -0.00438359 -0.00076032
756 3 4 49.2289 50.8182 0.428258 0.000883376 0.00616503 -0.00899395
542 2 2 55.6488 50.8117 5.01512 0.00797994 0.00572174 -0.00505682
350 2 3 59.0934 45.5362 0.357337 0 0 0
525 2 2 59.6775 45.7685 0.295352 0 0 0
2221 8 2 3.4168 45.9867 8.14602 0.0297253 -0.000141681 -0.01016
523 2 2 1.76652 48.3801 0.994837 0.0325815 0.00904342 -0.00913621
1958 7 2 2.00117 58.4317 3.71671 0 0 0
1624 6 3 0.235656 56.1033 7.26488 0 0 0
2214 8 2 14.8975 54.5884 1.02857 0.00611358 -0.00590248 -0.00492105
2737 10 1 11.7201 53.6922 3.89028 -0.000106175 -0.00436956 -0.000332943
2686 10 4 9.2508 54.4621 59.5874 0.00122168 0.0010485 -0.00433556
2555 10 4 23.4742 56.6688 5.61297 0.00253283 -0.00475404 -0.00154701
2211 8 2 16.4825 57.1065 0.949684 8.29096e-05 -0.00397791 -0.00583006
1732 7 1 16.9746 59.1576 9.6569 -0.00263088 0.00504872 0.00537758
213 1 4 14.9124 52.2583 4.04903 -0.00305951 -0.00441434 0.00199421
1103 4 2 19.8526 8.2004 6.17037 -0.00372467 0.0167373 0.00739767
738 3 1 23.6988 52.239 8.64476 -0.00331345 -0.005234 0.00641015
2429 9 1 24.1923 59.0697 4.53935 0.00136805 0.00507435 -0.00547993
2718 10 1 33.3865 53.3337 59.6139 0.0050333 -0.00265146 -0.00173302
2651 10 1 36.962 54.5509 3.43386 0.00265519 -0.00447403 -0.000904827
1047 4 1 35.5905 57.9521 2.44145 -0.00182449 0.00201042 -0.00423911
2496 9 2 30.4994 1.8298 20.3487 -0.0129858 0.0149784 0.0288753
2652 10 1 44.7092 57.2215 2.61597 0.00422045 -0.00421729 -0.00139881
2069 8 1 43.5177 55.1808 59.0324 0.00328714 -0.00536404 -0.00350631
116 1 4 38.0785 50.3098 5.74536 0.000833308 -0.00661804 0.00270747
2147 8 1 42.1445 53.9981 4.46659 0.00681631 -0.00290378 -0.00215928
1611 6 1 46.0269 57.0241 10.6393 0.0113688 0.00416842 0.0106889
917 4 1 39.1064 0.193384 7.05151 0.00162248 0.00461028 0.0062417
1074 4 2 41.6458 52.1483 2.20079 0.000807158 -0.000784548 -0.00625024
41 1 1 45.0913 51.8573 4.19013 0.000477664 -0.00273693 0.00572923
1252 5 1 36.7409 0.932998 5.86771 -0.00216422 0.0025586 0.00626574
4 1 1 52.6503 58.8727 4.48695 0.000681777 0.00154907 -0.00236257
1421 6 1 45.6492 53.7895 4.77713 0.000562632 0.00204051 -0.00196797
2086 8 3 50.3769 54.0603 5.5327 -0.00434242 -0.00175009 0.00440367
221 1 1 49.1448 57.372 7.90091 -0.00288582 0.00349001 0.00578025
1599 6 1 50.0888 59.0512 7.64635 -0.00179401 0.0065797 0.0104002
953 4 1 50.4749 59.3768 3.26707 0.000481589 0.00452295 0.00611541
21 1 1 51.9138 57.1159 4.50073 -0.00230581 0.000973499 0.00305153
1932 7 2 54.264 55.134 5.62047 -0.0177563 -0.0196901 -0.00162201
1956 7 2 4.36948 0.685289 0.384806 0.00101968 0.0220275 -0.00149522
1536 6 4 54.5137 52.8394 0.20681 -0.00280735 -0.00272911 -0.0037356
2788 10 2 0.477771 3.98095 13.9264 0 0 0
2717 10 1 5.95299 2.35866 16.5163 0.0107732 0.00274653 0.000249501
2074 8 1 6.83045 4.93269 10.1068 0.00379115 0.00387171 -0.00127353
1513 6 3 58.9279 5.42656 17.3736 -0.0066895 0.00963241 0.00494292
2370 9 1 8.28059 0.314952 15.5866 0.0087838 0.00299971 -0.00330928
2752 10 3 13.5452 3.09731 8.83081 0.00185426 -0.0010174 0.00182449
2152 8 3 13.4369 6.77395 9.11659 0.00114479 -0.00084461 -0.000680682
2807 10 2 12.4213 1.72414 5.35252 0.000433862 -0.000415973 -0.0129455
564 2 2 6.09777 1.83799 6.13787 -0.0276362 -0.0317033 0.000770818
1831 7 1 19.0106 5.99066 14.2303 -0.000254289 0.00812933 0.00716486
295 2 1 25.8119 1.51499 10.6503 0.0140698 -0.00130699 -0.00343114
1815 7 1 22.7462 8.71044 16.7158 0.00941645 0.00550896 0.00449905
2719 10 1 19.4247 2.85069 13.7663 0.00187935 -0.000979062 0.000986268
2193 8 1 15.7545 56.9603 15.4587 0.000316295 -0.00674995 0.00188335
1293 5 1 17.3932 8.95215 6.57465 -0.00238016 0.00418343 -0.00443007
2298 9 1 16.5761 3.77267 11.5649 -0.00319578 -0.00750947 -0.00205941
914 4 3 20.1764 0.130477 7.77608 -0.00181893 -0.0076513 -0.00546658
1533 6 1 18.4976 3.91721 9.5675 -0.00580067 -0.00669976 -0.0028555
2694 10 3 21.0456 5.49762 7.53579 0.0068495 0.00737694 -0.00206241
1900 7 1 25.9596 4.09202 16.9739 0.00100652 -0.0043842 0.0108436
1033 4 1 26.3526 8.05091 10.4704 -0.00216148 0.00439618 -0.00194372
823 3 2 31.6825 2.23789 5.94633 0.0081159 -0.00459542 -0.00665773
1407 5 2 20.7829 0.542446 12.7821 -0.00634641 -0.0113469 -0.00448599
2521 9 2 31.5962 0.640831 7.54352 0.00240244 -0.00581943 -0.0043671
2163 8 1 39.0956 2.56421 7.58129 0.00581812 -0.00262316 -0.000428941
1323 5 1 29.9985 1.72949 11.4863 -0.00271431 0.0014355 -0.00315434
684 3 1 28.6521 3.66429 13.9069 -0.00500198 -0.00406374 0.00460898
1553 6 1 41.334 8.89898 12.7717 0.0127786 0.0071564 -0.00257806
514 2 2 37.3861 57.8565 3.3745 0.0142055 -0.0192547 -0.0133472
833 3 2 53.8575 1.6238 21.5595 0.00752112 -0.0138526 -0.00594887
812 3 2 39.4888 2.39141 17.8653 -0.00595991 0.0026371 0.0114601
2008 8 1 41.3106 57.3839 8.34143 0.00718912 -0.00546762 -0.00299711
2601 10 1 40.6985 1.51696 8.28033 0.0047743 -0.00120001 -0.00372613
1301 5 1 41.8192 9.30249 8.1469 0.00185205 0.0040995 -0.00363242
2690 10 1 40.1098 0.541138 12.8568 0.00523536 -0.0128074 -0.00104184
1055 4 1 37.2329 1.9586 8.49031 -0.00215541 0.00260112 -0.00330014
1387 5 2 42.2332 9.34721 3.38022 0.000748446 0.00507764 -0.0183282
828 3 2 45.6832 59.0931 6.56417 -0.0199896 -0.0136496 -0.0092257
1760 7 3 50.3476 1.23057 11.7304 -0.00648168 0.00330182 0.000912053
52 1 4 50.5506 4.86459 15.5726 0.00151372 -0.000817881 0.00843112
2484 9 2 49.0002 58.9063 16.7272 0.00414883 -0.0102443 0.010179
608 3 1 44.5694 59.482 9.3532 -0.00266284 -0.00263951 -0.00322911
716 3 1 45.3915 58.9206 6.65589 -0.0006095 -0.00491848 -0.00558782
987 4 1 48.0319 57.95 11.3398 -0.00399543 -0.00459424 -0.00144043
560 2 2 50.3517 5.52282 5.65317 0.00397334 0.0103992 -0.00720577
830 3 2 49.3408 8.26776 8.75847 0.000941761 0.0100354 -0.00487911
1716 7 3 49.6052 58.7211 12.2638 0.00397445 -0.00676237 -0.00454424
1919 7 2 37.7382 57.2751 55.364 -0.0180751 -0.0193451 -0.028014
2677 10 1 57.1906 8.77978 8.97368 0.00251772 -0.00355995 -0.00371587
1957 7 2 1.62017 4.47117 18.1118 0.011806 -0.00495161 0.0135594
1098 4 2 58.4798 2.72832 7.99122 0 0 0
563 2 2 55.7018 57.856 9.64289 -0.00190562 -0.00784018 0.00848514
527 2 2 1.48228 21.0589 17.9485 -0.00249804 0.0132591 0.00664494
2253 8 2 6.9169 2.44824 5.39913 0.020698 -0.0192468 -0.00327902
2059 8 1 6.91244 16.2371 13.425 -0.00384475 0.0106355 0.00745803
505 2 2 2.69906 14.1179 8.09725 -0.01772 -0.0156129 -0.0207898
1638 6 2 7.1348 12.0556 6.536 0.00709469 0.0179189 0.0194172
1928 7 2 11.6405 4.82611 13.7822 0.00432251 -0.00970357 0.00811643
2391 9 1 11.457 8.25498 16.6004 0.00170855 -0.00531412 0.00868766
2151 8 1 19.8888 7.8867 18.5707 0.0109476 -0.00217657 0.00993308
187 1 1 14.7024 6.93194 12.2613 0.00301455 -0.00668915 0.000129814
476 2 1 17.6415 7.14227 13.7025 -0.0031183 -0.00237055 0.00744869
2369 9 1 19.2007 10.1419 13.2257 0.00186974 0.00447397 -0.00111025
1860 7 1 17.0335 8.0401 5.42324 0.000756709 -0.00517358 -0.00703815
688 3 1 18.0986 8.16743 14.9421 -0.00688229 -0.00296151 0.00521262
1746 7 1 22.0314 5.4205 15.784 -0.000690717 -0.0051059 0.0056446
1009 4 1 27.2302 8.86504 11.9727 0.00996672 0.00178347 -0.00339936
1893 7 1 14.5802 6.9652 13.7308 -0.00111856 -0.00371956 -0.00249504
2225 8 2 18.4631 6.95541 6.12706 0.00400974 -0.00878406 -0.010637
1925 7 2 24.4538 4.11235 5.66359 0.00654906 -0.0163687 -0.0174042
1680 6 2 24.4505 6.81488 17.7493 -0.00310951 -0.00355502 0.0120995
1470 6 4 28.2575 11.424 11.8533 0.000157299 0.00666301 -0.00301535
474 2 4 28.5087 11.5581 7.63616 -0.00126686 -0.00197337 -0.00575437
337 2 1 30.9701 6.72884 12.3089 0.00751322 -0.00425843 -0.00517822
963 4 1 23.5555 9.5268 13.0045 -0.00457331 -0.00632204 -0.00334331
54 1 1 35.0419 12.8688 5.91635 -0.00185503 0.000251551 -0.00543533
1527 6 1 31.0112 5.07951 7.36187 -0.00361537 -0.0071713 -0.00355523
1820 7 1 36.0166 6.50337 11.2372 0.00303993 -0.00309793 -0.00433137
200 1 3 44.9105 12.8531 13.933 0.0035241 -0.000398379 0.005164
1698 7 4 38.6777 13.7565 13.4621 0.00152994 -0.00214731 -0.00253657
1909 7 1 47.7052 9.45503 11.1001 0.00392245 -0.00278879 -0.00251937
1591 6 1 49.1528 8.56343 12.5596 0.00122076 -0.00377951 -0.00131468
1375 5 2 50.7317 15.0591 10.308 -0.00746641 0.0223968 0.00526813
229 1 2 51.8808 16.2391 10.153 -0.000915705 0.0102789 -0.0108098
1368 5 2 45.8909 18.9503 22.8015 -0.011567 0.0152139 0.0156952
1384 5 2 54.4056 15.7334 8.16843 0.0045933 0.00320106 0.00318083
2195 8 1 52.1186 8.64003 10.6782 0.00133917 0.000690328 -0.000431643
526 2 2 57.6423 10.2839 12.0644 0 0 0
336 2 1 59.3417 12.1997 10.0517 0 0 0
2180 8 1 56.8779 13.816 7.72857 0.00137565 0.000495708 -0.00399847
377 2 1 3.86114 17.1461 11.0601 -0.000393429 0.00132556 0.00117687
273 1 2 1.40676 16.8754 13.5764 0 0 0
2577 10 4 1.74793 18.4327 12.2029 0 0 0
218 1 1 5.27531 19.5079 12.4391 0.00502126 -0.00946848 -0.00748299
636 3 4 8.21893 17.9188 15.5497 0.0101468 0.002895 0.00674008
841 3 2 4.62315 13.0762 12.9234 -0.00306897 -0.0273063 0.0189929
1686 6 2 1.68579 20.8619 16.3293 -0.00391982 -0.00121532 0.0132164
2698 10 4 9.61066 18.9864 10.3595 0.000601313 0.00419241 0.000116041
2062 8 1 7.24298 17.7715 12.2541 0.00255816 0.00138984 -0.00233884
290 2 4 8.1347 16.9083 10.766 -0.00281971 0.00326663 0.00488084
2617 10 1 28.3055 16.8172 12.4957 0.0143105 -0.00386598 -0.00221668
2007 8 1 19.9568 16.8046 8.0695 0.00285036 -0.00183628 -0.0031435
2160 8 1 23.5592 22.6987 10.8297 0.00322525 0.00189915 0.000237737
2165 8 3 20.7372 18.6548 15.4667 0.00227423 0.000507351 0.00137095
1907 7 4 19.2616 19.8064 10.9143 -0.000650276 -0.00109173 -0.00187113
1433 6 1 16.2275 17.5207 9.18705 -0.00414951 -0.00471147 -0.00096159
2053 8 1 20.6073 18.9886 7.33998 0.00535495 -0.00129808 -0.00602974
2436 9 1 19.6676 16.9759 8.79144 0.000719521 -0.00424402 -0.00493411
2304 9 1 20.8346 19.8176 9.86885 -0.00217348 -0.00337767 -0.00241023
1992 8 1 19.7909 18.1001 10.4744 0.00738849 0.00468203 -0.00731711
1822 7 1 30.2288 16.0708 18.0525 0.00210516 -0.00112485 0.00887011
2396 9 4 26.8249 26.1725 12.6658 0.00153799 0.0089163 -0.00224964
1987 8 1 24.6068 21.4049 8.21881 -0.00892145 -0.00159362 -0.00118824
1378 5 2 29.3516 22.8143 11.7975 0.0137302 0.00740024 -0.00592375
683 3 1 27.7795 15.9619 10.2129 0.00733731 -0.00185263 -0.00820181
450 2 1 30.6473 21.4824 5.70934 -0.00215274 -0.000747911 -0.00438153
905 4 3 36.1067 24.7339 12.296 0.00205593 0.00837497 -0.004668
426 2 1 35.4586 19.244 12.3439 -0.00144687 -0.0015158 -0.00501022
206 1 1 39.4514 16.8475 12.5784 0.00250527 0.000548098 0.00447408
2399 9 1 40.595 16.4516 12.2706 0.00420759 -0.00408547 -0.00196868
1741 7 1 40.6646 16.7187 15.1571 0.00255053 -0.00280767 0.00547842
825 3 2 39.9748 20.4542 19.4645 -0.00215744 -0.000138957 0.0091273
2081 8 1 40.8093 16.7016 13.0952 0.00299765 -0.00148768 0.000549244
2077 8 3 43.1192 19.2572 10.4825 0.00322964 -0.000713556 -0.000324893
993 4 3 41.0001 18.2715 8.00848 0.00215243 -0.0047165 -0.0040793
2003 8 1 45.5145 21.561 14.1687 0.00798791 -0.000782008 -0.00138385
924 4 1 49.5094 19.5497 11.2173 0.00329567 -0.00326406 0.00734206
2716 10 3 47.8328 19.6814 11.7796 -0.00324376 -0.00257711 0.0037828
1697 7 1 51.9192 20.8793 11.9476 0.0055548 -0.000160193 -0.00610514
1618 6 1 44.6095 13.5197 9.9142 -0.0013943 -0.00474845 -0.000976361
2478 9 2 44.311 22.0053 13.2953 -0.0120016 0.000947634 -0.000682948
1518 6 1 48.9422 19.0998 10.4461 -0.000136953 -0.00440784 -0.00402578
2520 9 2 51.7973 18.0315 8.51815 0.000475191 0.00605376 -0.0115997
2703 10 1 56.0745 17.8533 10.1287 -0.00121801 0.00351014 -0.00206941
611 3 1 59.8715 16.6897 14.7952 0 0 0
2250 8 2 55.124 20.4082 11.9367 -0.00256502 0.00279603 0.000702976
814 3 2 47.6514 18.3429 8.89279 -0.0128076 -0.00304224 -0.00283014
2210 8 2 53.1241 21.8973 15.9873 0.0100784 0.0205956 0.0142563
1574 6 1 53.3399 17.0223 14.7004 -0.00208721 -0.00156064 0.0057827
504 2 2 1.28889 28.0648 9.24249 0 0 0
1626 6 2 0.677955 23.4086 12.9437 0 0 0
2014 8 1 4.47255 25.2028 14.6805 -0.000935662 -0.00755027 -0.00598275
2129 8 1 4.61883 23.5105 10.6014 -0.00697104 -0.000991343 0.00492078
1446 6 1 10.1629 25.4535 13.0187 0.00804311 -0.00356525 0.00141631
1380 5 2 2.16853 18.8127 15.8525 -0.0153465 -0.033417 0.00786069
486 2 4 10.5914 28.8978 10.8697 -0.00457592 0.00212276 0.00586513
2723 10 1 10.2015 24.2117 14.2416 0.00172775 0.00229906 0.00146123
2154 8 1 10.9688 26.2383 14.7781 0.000781968 0.00297167 0.000677426
2551 10 1 17.2176 26.3832 8.86561 0.0134507 -0.000692652 -0.00286671
2325 9 1 10.8011 23.6038 11.2791 0.0021154 0.00066361 0.00263311
2411 9 1 11.1562 25.4215 7.79536 -0.00215696 -0.0013203 -0.00352053
2073 8 1 10.3776 30.7817 9.74564 -0.00347707 0.00181333 -0.000833872
868 4 1 8.56639 28.8309 10.733 0.00469033 -0.0118026 -0.000145216
1182 5 1 8.81952 28.399 14.1237 0.00303341 0.00417099 0.00378489
780 3 2 25.4189 32.0078 15.1787 0.0161442 0.00554519 0.00927337
2001 8 1 17.0188 24.1997 12.2317 0.00222275 -0.000508453 -0.00186207
1971 7 2 34.6129 15.2599 8.24845 0.0288418 -0.0231889 -0.00277649
2030 8 1 24.5085 25.7236 15.2646 -0.00939129 0.00155631 0.00922471
1668 6 2 14.6844 21.2873 25.564 -0.0164355 -0.00467571 0.0224007
2051 8 1 23.8432 24.129 8.81104 0.000311234 0.00124541 -0.00303099
2079 8 4 27.7757 22.6664 13.7057 0.000368738 -0.000375923 8.89492e-05
1440 6 4 25.5919 20.949 14.3453 -0.00200461 -0.0035072 4.10515e-05
1817 7 3 30.8213 24.8117 12.4308 0.00193726 0.000729135 -0.00386404
1296 5 1 27.3181 22.6953 12.2598 -0.000567177 -0.00547555 -0.00325983
2638 10 1 33.1145 23.4093 11.2892 0.000860698 0.00152126 -0.000581762
2113 8 1 27.8251 26.7097 12.4559 -0.00926079 0.00187814 -0.00103462
635 3 1 29.3918 27.4504 9.65644 -0.00567884 2.20711e-05 -0.00515111
1306 5 3 30.6197 24.7635 11.2987 -0.000999856 -0.00522171 -0.00292227
1738 7 3 35.3624 25.2231 8.18487 0.00135748 -0.00144537 -0.00764843
2588 10 4 30.3012 27.6469 13.2958 -0.00812997 0.00289818 -0.00321364
846 3 2 53.2057 36.0102 16.8536 0.00146822 0.017694 0.00911474
1674 6 2 39.5861 31.6191 10.8466 -0.00719561 0.0169228 -0.000781094
1213 5 1 39.5132 26.0151 18.3751 -0.000726956 -0.00261418 0.00780121
1064 4 1 41.6773 24.5494 9.61897 -0.00144795 -0.00500812 -0.00452621
2222 8 2 31.441 26.3078 5.33943 -0.0142571 -0.00239071 -0.0139296
1930 7 2 40.2318 13.1234 29.2289 0.00338877 -0.0267539 0.032556
112 1 3 50.8576 29.1774 9.102 -0.00209357 -0.00511758 -0.001664
515 2 2 46.3029 40.7935 10.4346 -0.00892385 0.0223592 -0.00217016
1578 6 1 47.0552 26.9512 8.15315 0.00224223 0.000521045 -0.00234257
491 2 1 51.0982 27.9258 15.7105 -0.000666398 0.0066287 0.00577839
1541 6 1 48.4206 24.8308 6.3073 -0.00143819 -0.00331968 -0.0032832
1558 6 4 52.4345 26.2559 14.2476 9.56615e-05 0.00151046 0.00249675
1346 5 1 47.1166 27.0981 9.75066 -0.00116868 -0.00558318 -0.00559707
2483 9 2 50.9626 27.1285 19.7049 0.00505672 0.0080757 0.0229162
508 2 2 59.6874 28.5706 9.49677 0 0 0
2232 8 2 58.4871 24.0095 8.20729 0 0 0
1997 8 1 58.8592 24.7872 9.28334 0 0 0
2797 10 2 59.2695 24.4339 10.1845 0 0 0
1370 5 2 47.2152 23.0858 5.10177 -0.0143536 0.0046795 -0.0159788
237 1 2 56.6372 21.3372 10.5079 -0.00445197 -0.0219133 0.0145136
558 2 2 0.125292 35.4179 12.5689 0 0 0
2056 8 4 3.08346 32.0697 13.0818 -0.00619752 -0.00185329 -0.0112609
609 3 1 15.5922 37.0089 18.5246 0.00486285 0.00682916 0.00850382
2085 8 1 11.6433 35.281 14.7922 -0.00245614 0.0024326 0.00111663
1577 6 1 12.6262 37.0619 8.43433 -0.00473896 0.00280097 -0.00262033
1939 7 2 20.0482 43.9651 12.3083 0.0100641 0.0131477 -0.000790251
2546 10 4 19.9949 34.3884 8.42503 0.00108498 0.00233327 -0.000214995
1605 6 1 11.5063 30.975 6.92481 -0.00714033 -0.0001924 -0.00181344
1492 6 4 19.6526 30.0211 17.3292 -0.00334067 -0.00210679 0.00875083
615 3 1 18.165 36.4954 8.89541 -0.00774099 0.00398009 -0.00436772
819 3 2 13.5508 23.1072 5.21683 -0.00769544 -0.0235804 -0.00831023
2417 9 1 19.4225 36.1617 11.3566 0.00506566 0.00707051 -0.00629777
2435 9 1 24.3896 32.1491 13.1478 0.00947728 -0.00523265 -0.00213159
1870 7 3 23.1504 31.0728 11.8268 0.00210708 -7.32319e-05 -0.00464344
951 4 4 22.5686 30.5619 11.2663 -0.00470408 -0.00123122 0.00727966
2068 8 4 27.1755 39.1464 18.0897 -0.000129693 0.00409209 0.0122091
2628 10 3 22.2211 33.1124 19.9994 -0.00120318 0.00409488 0.0125227
1913 7 1 28.3786 37.9723 11.1922 -4.92784e-05 0.00337686 -0.00239615
1006 4 4 22.3156 36.6391 5.91491 -0.00061729 -0.000826172 -0.00359442
1505 6 1 25.9515 33.3149 9.80328 -0.0036733 -0.00189602 -0.00474994
10 1 1 21.9595 37.3638 8.65727 -0.00236729 0.00552857 -0.00826835
644 3 1 31.4664 32.7198 9.25299 0.00699687 0.000636563 -0.005872
2143 8 3 39.4776 35.9609 7.56904 0.0129582 0.00483182 -0.00451938
977 4 1 29.7179 35.0137 18.3928 -0.00185421 -0.00174206 0.00994996
2262 9 4 34.6384 29.6998 8.89864 0.00287768 -0.00521704 -0.00265567
1207 5 1 32.0068 30.5733 4.10304 -0.00168104 -0.00166514 -0.00753499
1854 7 4 46.3402 35.7672 13.7731 0.00583865 0.000725446 0.00602983
456 2 1 39.2882 36.152 9.10713 0.000107241 0.00248239 -0.00367077
944 4 1 45.8508 36.2757 10.5814 -0.00241844 -0.00121098 0.00429033
1968 7 2 41.1192 38.8028 6.20105 -0.00954959 0.010637 -0.00755828
250 1 2 44.0883 29.6568 14.3178 -0.00710038 -0.00721341 0.00184491
981 4 1 48.9804 32.6978 11.343 0.00256809 -0.00173184 -0.00344301
2291 9 1 43.9266 35.9926 12.8651 -0.00366972 -0.0024495 -0.000230719
1532 6 1 54.0446 33.2086 12.6027 0.000610093 0.00323481 -0.000800426
2360 9 4 4.18693 40.6717 12.5719 0.00025958 0.00356786 -0.00270727
2344 9 1 4.76451 36.774 12.6567 0.00981496 0.00206565 -0.00368549
2701 10 1 0.911695 43.7344 11.8842 0 0 0
2260 9 1 2.50243 44.7196 14.1748 0 0 0
2619 10 3 6.25864 41.3588 9.79684 0.00203871 -0.00197536 -0.000365318
1429 6 1 3.11102 44.2602 9.55615 0.000820077 -0.0087734 -0.00298351
1978 8 1 1.08425 38.0683 14.7673 -0.00468218 -0.00595116 -0.000209288
1109 4 2 15.8988 48.1297 9.91587 0.0435913 0.0185175 -0.0103212
923 4 1 11.3453 47.1854 3.11315 0.00289264 0.00475305 -0.00906117
982 4 1 10.5488 44.9291 8.19501 -0.00507563 0.000285612 -0.0040258
1798 7 1 12.8666 35.5749 11.207 -0.00193027 -0.00727722 -0.0042184
159 1 1 12.3268 36.4098 12.6496 -0.00436403 -0.00825643 -0.00344889
2243 8 2 29.7116 33.4913 12.5066 0.0183259 -0.0146635 0.00795358
2438 9 4 18.9078 41.8044 5.71714 0.000471951 0.000915281 -0.00490617
885 4 4 18.0569 37.91 5.80008 -0.00221042 -0.0030176 -0.00548518
1601 6 3 19.7148 39.9508 9.00743 -0.00530264 0.00191776 -0.00172471
1623 6 4 16.196 43.5459 6.96869 -0.00703521 0.000447976 -0.00205726
2247 8 2 20.2651 44.6394 8.42156 0.00251982 0.00532489 -0.0118527
1764 7 4 22.975 41.3417 10.9302 -0.000381403 0.00399234 0.00461583
557 2 2 23.2348 42.5204 24.2203 -0.00199863 0.00533808 0.0213001
375 2 1 28.552 40.7385 11.0131 -0.0017646 0.0016005 0.00409462
2695 10 1 24.3109 37.6024 6.97835 0.00273279 -0.00482072 -0.00220653
1011 4 1 25.6553 44.022 7.25859 -6.75314e-05 5.32053e-05 -0.00271408
1635 6 2 36.3145 43.233 1.94202 0.0249763 0.00451463 -0.0193902
2403 9 3 34.6068 38.8707 15.373 0.00273537 0.00071473 0.010485
1659 6 2 35.1026 43.9022 25.7027 -0.00294888 -0.000122952 0.0230961
1010 4 1 31.4399 37.5984 11.6158 0.00109418 -0.00153452 -0.00222504
1670 6 2 32.6252 44.8551 10.0141 -0.00102696 0.00220582 -0.00246098
2 1 1 35.743 41.6619 16.4644 0.000385009 -0.00590782 0.00434188
728 3 1 33.4793 40.8288 11.2617 -0.00213254 0.00437015 -0.00430387
1657 6 2 42.2392 48.7605 3.04699 0.011113 0.0135983 -0.0183896
2637 10 1 45.1282 47.9165 13.9521 0.00314843 0.00663709 8.46125e-05
2400 9 1 46.2067 45.7609 10.5824 0.00515834 0.00165438 -0.00248672
2736 10 1 42.8023 40.857 8.3985 0.00592767 -0.00672661 0.000535899
1487 6 1 40.5225 47.5592 13.157 -0.00583533 0.00685493 -0.00284126
1120 4 2 46.686 38.336 3.8393 0.0131192 -0.0133886 -0.0154609
601 3 3 44.5054 47.3567 12.6195 -0.00259861 0.00719758 0.00710589
881 4 1 51.2634 44.5083 8.80231 -0.00259305 0.000243569 -0.00301692
930 4 1 48.275 45.519 18.0577 0.0023856 0.00219581 0.00855814
2237 8 2 48.8279 41.5611 3.01872 -0.00261426 0.0022846 -0.00916926
107 1 1 46.4655 45.398 12.1668 -0.00280897 0.00417824 -0.000901533
715 3 1 45.053 43.0363 11.5064 -0.000963807 0.00425525 -0.00444932
2700 10 4 57.2939 42.3168 10.1399 0.00166944 -0.00335963 0.00132986
65 1 1 54.3809 37.3141 11.9175 0.00408339 0.000318351 -0.00466929
1590 6 1 57.7917 39.5331 12.7218 0 0 0
2553 10 3 59.7062 43.8516 11.0836 0 0 0
1621 6 1 55.9526 43.3514 10.7077 -0.00441366 0.00366997 0.00620427
556 2 2 54.3274 37.2564 16.3382 0.0019227 -0.00926781 0.0100025
959 4 1 1.70151 46.9187 7.79658 0 0 0
1988 8 1 4.04797 49.6403 10.6908 -0.00163146 -0.00667286 0.000361394
817 3 2 1.1453 51.1477 17.4159 -0.0578255 -0.00590213 0.0238172
1175 5 1 11.7848 48.8323 6.53381 0.00787545 0.00103775 -0.00184259
279 1 2 11.3203 48.7548 4.57987 0.00955654 0.00139912 -0.0199832
2646 10 1 9.52246 54.17 12.2822 0.00612719 0.00589456 0.00806335
1749 7 1 14.6545 42.8051 10.2196 -0.0022939 -0.00897598 0.00428392
2334 9 1 22.8049 52.6377 13.2005 0.000770181 0.00338654 -0.000197096
1026 4 1 16.3205 52.2753 12.1308 -0.0034839 0.00117346 -0.00116145
1176 5 1 19.2091 47.3346 7.28289 -0.00222359 -0.000761675 -0.00729762
2687 10 4 16.9763 49.2991 10.3259 0.00088945 -0.00378977 -0.00158203
1783 7 1 16.9824 49.7128 5.98278 -0.00103611 -0.00442945 -0.00666844
227 1 2 2.64494 46.0172 9.73611 -0.0253646 0.0053475 -0.0204586
597 3 1 26.7023 54.5683 6.36793 0.00589985 0.00884866 -0.00627681
1167 5 4 23.4164 47.5913 6.70239 -0.00196912 -0.00169374 -0.00700192
2537 9 2 23.6764 37.3001 5.58674 -0.0102415 -0.0160128 -0.0156619
1880 7 1 33.8626 49.0328 5.49928 0.00389232 0.00379136 -0.00511254
1748 7 1 38.0496 54.5019 13.716 0.00252812 0.00496478 0.0051132
1039 4 4 29.808 51.8187 9.93122 -0.00184399 0.000718536 -0.00166836
1190 5 1 44.5836 51.4872 13.309 0.00249711 0.00143624 0.00613059
1660 6 2 29.7106 54.2634 13.5963 -0.0178294 0.00719762 0.00765717
2666 10 1 43.2425 46.8051 11.5393 0.0050345 -0.00551159 3.6854e-05
1593 6 1 39.5127 50.5595 14.2388 -0.000793656 0.0047677 -0.000760438
90 1 3 50.9753 50.5059 16.6931 0.00132745 0.00500258 0.00584421
1439 6 1 51.044 48.8404 12.4337 0.00386877 -0.000600418 -0.00110539
2708 10 4 51.7118 46.0689 11.7133 0.000895609 -0.0014427 -6.84738e-05
331 2 1 46.1906 48.5641 15.7873 -0.00163788 -0.00745977 0.00756125
269 1 2 52.651 47.6167 10.4969 0.00893851 0.00832096 0.0191021
1389 5 2 55.6107 48.0853 11.8677 0.0157404 0.0119879 -0.0154652
2798 10 2 2.10773 49.5609 8.30035 -0.0124357 -0.00799838 -0.00307396
965 4 1 57.5458 51.8668 11.5276 0 0 0
1944 7 2 6.68778 59.3695 13.6534 0.0154106 -0.0051907 -0.000284691
254 1 2 56.4683 54.1854 12.0828 0.0219982 0.0120155 -0.00494921
252 1 2 4.43866 53.3417 8.13511 0.0117928 -0.00493352 -0.0107141
1441 6 1 7.21466 53.1301 8.49309 0.00124908 -0.000550519 0.00050135
2626 10 1 14.5778 58.7381 11.8784 0.0137005 0.00244111 0.00269768
2696 10 1 10.088 58.435 13.8816 0.000118996 -0.00100519 -0.00092808
1322 5 1 7.47241 0.630375 11.291 -0.00222656 0.00734253 -0.00811662
2561 10 1 20.7432 59.9103 13.4451 0.00242704 0.00790466 -0.000942186
1447 6 3 19.6455 55.8993 9.1817 -0.0019491 0.00326346 -0.00135326
1052 4 1 14.577 54.1701 13.2266 -0.0063414 0.000982429 -0.00192788
927 4 3 28.4751 58.9298 4.93817 -0.00130038 0.00478596 -0.00606077
149 1 4 22.6683 53.7257 11.2008 -0.00293035 -0.00443107 -0.00501744
634 3 1 19.0001 0.0899282 11.684 -0.00737278 0.00670699 -0.0045886
422 2 4 36.3657 58.9874 18.1041 -0.000811467 0.00707747 0.00775522
681 3 1 32.7036 2.44248 16.3323 -0.00415288 0.0074811 0.00491305
1023 4 1 32.1458 1.15713 8.65712 0.00013036 0.00315803 -0.00195558
886 4 1 35.7196 58.5402 6.92991 0.00147213 0.00117484 -0.00581562
1951 7 2 51.3674 18.0211 13.0894 0.00739645 -0.00244981 -0.00497433
785 3 1 37.1531 52.7982 15.1441 -0.00365679 -0.00488096 0.00361282
399 2 1 51.3185 54.5917 9.45402 0.00177655 0.00343569 -0.0047624
732 3 1 47.9417 54.6547 8.45008 -0.00291655 0.0033721 -0.00468212
1631 6 1 47.6787 55.7115 13.0346 -0.000635668 0.00192729 -0.000821482
138 1 4 46.2651 57.058 11.431 0.00181341 -0.004648 -0.0061504
2816 10 2 53.7641 59.8764 15.1711 -0.00267872 0.0146744 0.0212836
2594 10 1 53.1459 59.9783 15.1842 -0.000752513 -0.0046671 0.00316043
1523 6 1 0.58671 55.5763 15.0642 0.00311402 0.00425229 0.000965386
83 1 4 54.2226 54.0184 11.0052 0.00147026 0.00309175 -0.000469919
2783 10 2 52.4202 58.9483 8.89134 0.0191512 0.0188189 -0.017199
2705 10 1 55.7675 53.9622 13.1117 0.00415355 -0.00587739 0.0051941
2089 8 1 57.1728 59.7158 10.0458 0 0 0
1627 6 1 57.7021 53.0184 11.7168 0 0 0
2721 10 1 59.132 55.4719 12.4388 0 0 0
2140 8 1 58.5751 53.005 11.289 0 0 0
2596 10 1 4.57702 4.23247 15.8452 -0.0142156 0.00174905 -0.00885295
2469 9 4 6.84584 4.63897 19.1738 -0.0027914 0.00544586 -0.0111803
50 1 4 1.64431 5.18743 18.2259 0 0 0
2124 8 1 0.943841 7.35431 20.4733 0 0 0
1049 4 1 2.69652 2.70796 21.9584 0 0 0
2252 8 2 0.123491 1.86645 15.2008 0 0 0
864 4 1 5.96644 1.9231 17.1983 -0.0039989 -0.00442009 -0.00227372
345 2 1 5.81101 2.85804 19.8693 0.00412623 0.0141793 0.000912917
70 1 1 6.52874 1.66234 20.5042 -0.00563036 -0.00995285 -0.00711378
2463 9 1 15.5847 5.32964 18.355 0.00592264 0.00928011 0.00466579
2277 9 1 16.778 58.1451 17.261 0.0106414 -0.00580005 -0.00178602
2363 9 1 9.54864 8.14847 18.7121 -8.24714e-05 0.00404569 0.000969629
2123 8 4 11.092 4.72755 20.3294 -8.1796e-05 -0.00213989 -4.89204e-05
607 3 1 8.20938 0.42809 14.9402 -0.00606261 0.00196868 0.000760451
926 4 1 9.56901 4.44217 16.3976 -0.004932 -0.00616997 -0.00354889
1934 7 2 15.7384 2.81947 16.1907 -0.000920923 -0.00347211 -0.00571686
292 2 1 15.3374 4.16777 18.9153 -0.00476073 -0.00209645 -0.00515234
372 2 3 14.2265 7.73535 17.1314 -0.00503051 0.00691867 -0.00649392
2545 10 1 23.6117 1.99953 23.4175 0.00201995 -0.00427489 0.00238409
413 2 1 26.3625 1.01753 26.895 -0.00246371 -0.00451569 0.00902201
2285 9 1 25.2546 3.98701 27.7193 -0.000846282 0.0036784 0.0124015
1334 5 1 23.3276 5.97419 14.3447 -0.00514627 0.00209764 -0.00289326
2365 9 1 24.0082 4.98326 20.1208 -0.00919217 0.00328785 0.000999769
2622 10 1 29.0664 5.49765 22.3035 0.000691287 0.0110403 0.000508699
2607 10 1 33.1865 6.27563 14.5414 0.0025469 -0.000434075 -0.00201451
2104 8 1 39.3324 0.988913 18.3971 0.00448529 -0.00358262 0.00116482
2284 9 4 36.756 5.48688 14.9499 0.0014386 0.00339178 -0.00179502
2278 9 1 31.3491 4.01382 21.4863 0.000815624 0.00285956 -0.00083295
1538 6 1 35.9137 57.2489 18.4584 -0.00182486 -0.00795661 -0.00101212
1228 5 1 36.4925 3.16327 15.9496 0.0091661 -0.00729355 -0.00459148
1065 4 1 36.0423 57.9026 18.8412 -0.00292733 -0.0104879 -0.00227276
29 1 1 30.6733 59.5267 19.9866 -0.00158313 -0.00114186 -0.00418408
1886 7 1 40.4566 1.69551 17.7771 0.00478132 -0.0053017 -0.00219719
1254 5 4 39.6945 6.15594 14.2096 -0.00147271 0.00378799 -0.00342247
2565 10 1 42.3085 5.3956 15.3996 0.00694531 -0.00280728 -0.00122208
122 1 1 51.342 3.00319 14.7348 0.00088291 0.000441554 0.00150343
185 1 1 50.539 6.79974 20.4149 -0.00266455 0.00406294 0.00327421
718 3 1 48.2298 1.42747 23.563 -0.00310576 -0.00124183 0.00629992
2055 8 3 46.1972 3.99368 21.3934 -0.00427977 -0.00029708 0.00161973
179 1 1 46.1671 0.983429 21.1183 -0.00461237 -0.000708485 -0.00126502
787 3 2 30.1091 0.705233 25.0123 -0.0323938 0.000219376 0.0113657
2763 10 2 55.7306 5.42375 15.3494 0.0146374 0.0154308 -0.00611618
2725 10 1 59.0802 0.987784 15.5295 0 0 0
610 3 3 58.764 7.25621 16.8172 0 0 0
317 2 1 54.0741 1.04804 21.628 0.00273537 -0.00379127 0.000846826
1086 4 2 0.719326 0.97619 18.854 0.0060909 0.00186544 -0.00347199
308 2 1 53.1582 6.01629 22.4817 -0.000491015 0.00113851 0.000274297
2709 10 4 6.01435 8.92925 20.5664 0.00264567 0.00372038 0.00143628
214 1 3 2.38546 13.2716 15.4246 0 0 0
2175 8 1 5.97996 13.8926 19.5694 -0.000353212 -0.00702716 -0.000248178
2121 8 3 0.453045 13.706 22.0152 0 0 0
2082 8 1 1.27319 12.9536 16.9868 0 0 0
2032 8 1 2.71163 10.7487 21.0626 0 0 0
334 2 4 0.247983 14.6843 22.3362 0 0 0
2133 8 1 8.32213 12.0113 17.9626 0.00135793 0.00245451 -0.000952749
2645 10 1 13.176 15.1364 21.0953 -0.0029116 0.0114281 0.00211266
1358 5 2 17.452 9.1267 19.0013 0.00566994 -0.000310797 -0.00159744
1696 7 1 16.4472 6.35897 17.5264 0.0104663 -0.00417627 0.00342443
2441 9 1 10.9442 10.0151 13.5203 -0.000920766 -0.00600517 -0.00338813
2098 8 1 20.6966 12.0221 23.3687 0.000633323 -0.00204918 0.00238394
1146 5 1 19.3181 13.894 13.9577 -0.00480079 0.0031782 -0.00506306
999 4 1 21.4767 5.38534 17.7607 -0.00105185 -0.00747013 -0.00194246
983 4 1 17.7829 11.2943 18.003 -0.00340142 -0.00606554 -0.0021286
781 3 1 25.1482 10.8679 15.0051 0.00618084 -0.000960429 -0.00812358
1816 7 1 22.0691 14.0849 20.5512 -5.59736e-05 -0.00130443 -0.00219197
989 4 1 25.6926 11.5707 21.6558 -0.00134628 0.00603594 0.0105918
1981 8 1 25.842 6.49018 17.5888 0.002908 -0.00445096 0.00138037
2408 9 1 22.7414 12.4931 21.7151 0.000487479 -0.00413658 -0.000458982
2777 10 2 25.7424 9.19169 20.0322 -0.0208168 0.0033348 0.00120998
2190 8 2 42.829 14.6387 12.7844 0.0167431 -9.39799e-05 -0.00963149
2633 10 1 30.4722 13.3697 18.1683 0.000370448 -0.000222452 0.000401859
1320 5 4 33.7558 16.2364 14.0215 -0.00159304 0.00503068 -0.00287889
2649 10 1 34.7519 10.4064 22.6561 0.00178517 -0.00139332 0.00270182
1481 6 1 33.1907 9.14649 16.2968 -9.44558e-05 -0.0057035 -0.00307684
947 4 1 33.8123 12.2709 19.1021 -0.00239194 -0.00431383 -0.00280279
1183 5 1 30.9145 15.9727 19.6323 -1.10717e-06 0.00575973 -0.00497734
2804 10 2 30.1197 18.737 18.264 -0.0110944 0.0101413 -0.00520537
882 4 1 42.1024 9.37937 16.061 0.00246148 0.00317807 -0.0036204
2075 8 1 41.4453 9.10461 22.9736 0.00275606 -0.00252528 0.00208771
1246 5 4 42.9063 5.84838 17.134 -0.00182153 -0.00800252 -0.0038458
938 4 1 41.1543 11.1186 18.2783 -0.0045424 -0.00498017 -0.000564106
778 3 3 48.0222 11.144 18.284 -0.000301964 -0.001142 0.00430919
2288 9 1 46.4212 14.8216 22.121 -0.00516092 0.00114559 0.00280036
488 2 1 50.6177 8.76984 17.8222 -0.00521938 0.00375384 -0.000294719
997 4 1 44.2898 15.4382 18.5587 -0.00409721 0.00181881 -0.00362808
1101 4 2 51.0292 7.8192 20.3039 -0.0119614 0.0161523 0.00614249
1663 6 2 37.5362 13.1464 16.0109 -0.0214381 0.00197518 0.00131903
1381 5 2 52.8644 13.1894 15.6811 0.0157963 0.0080374 -0.00607302
2060 8 1 55.7481 12.9457 19.2764 -0.000926353 0.00719406 -0.000797925
1123 4 2 58.0877 8.14609 21.012 0 0 0
2667 10 1 53.3169 10.8005 15.8672 -0.00162563 0.000867367 0.00516084
2015 8 1 58.5482 10.0214 18.4905 0 0 0
1881 7 1 55.7258 13.7194 18.4 0.000721922 0.00060609 0.00538255
2518 9 2 53.917 8.5699 22.8332 0.00588605 0.00249849 0.00960796
1104 4 2 52.6354 12.7693 19.8558 0.00159942 0.0131292 0.00727598
2245 8 2 2.07335 17.2944 21.3164 0.0113562 0.0124695 0.00907839
2741 10 1 5.5502 19.3865 14.7653 -0.000323633 0.0132694 -0.00214195
544 2 2 57.3955 9.95469 25.1028 0.0062193 -0.0137844 -0.00905907
145 1 1 -0.00769648 18.5465 18.0228 -0.00683359 0.000434311 -0.00430864
1349 5 1 59.9744 18.4633 20.3866 -0.00235445 0.0015983 -0.00205563
2022 8 1 3.85901 23.219 16.9672 -0.00938713 0.00354926 -0.000329169
2434 9 3 11.2259 21.0493 24.0683 0.00140084 0.00539815 0.010931
2751 10 4 9.41579 17.567 18.3984 -0.00140684 -0.000961996 0.00251808
2743 10 4 12.0487 15.0217 20.8093 0.000139349 -0.000493465 0.00345146
2135 8 1 15.5869 22.0955 17.2811 0.00150517 0.0024783 -0.000809972
1579 6 3 6.40869 20.4898 19.7916 -0.0034423 0.0095318 0.00753656
2440 9 4 9.07415 14.2381 17.5775 -0.00140757 -0.00476099 -0.0034269
2217 8 2 18.5469 10.9731 15.3086 0.010447 -0.0169962 -0.0110637
1691 6 2 23.7498 33.4968 13.3861 0.0144802 0.0253067 -0.00492929
2571 10 1 26.2748 19.5575 20.0924 0.0100116 0.00261973 -0.000608071
2128 8 1 16.2914 23.4262 17.9186 0.000803487 0.00251404 -0.000709483
2665 10 4 22.3714 15.3065 19.3038 0.000651077 -0.000330093 0.00143335
1604 6 1 16.8185 15.8842 17.286 -0.00605651 -0.00311535 -5.00645e-06
1469 6 3 21.5565 16.6034 18.1128 -0.00133249 -0.00387152 -0.00167643
729 3 1 15.2448 19.9258 20.4448 -0.00540204 -0.000119245 -0.00248464
2026 8 4 24.901 18.1119 17.086 0.00347539 -0.000264218 -0.0022
1300 5 1 27.2979 21.5641 16.2734 -0.000857219 0.00635503 -0.00205932
1331 5 1 20.7171 24.7601 16.2363 -0.00564759 0.00604922 -0.00271235
1020 4 1 25.9698 19.5265 21.2821 -0.00065205 -0.0053451 0.000563418
2650 10 3 32.74 22.2338 16.4904 0.001654 0.00090816 0.00154608
208 1 1 35.7012 17.4357 19.0133 0.00186444 0.000769544 0.00552467
429 2 3 34.0926 17.4944 19.3847 -0.00190748 -0.00217592 -0.00333466
1275 5 3 38.1465 23.5184 22.9865 0.000681902 0.00755388 0.0095229
1872 7 1 48.3357 15.7452 27.4933 0.00715874 -0.00322596 0.0107471
1545 6 1 43.2971 26.5391 16.7305 0.000515615 0.0103376 -0.00173129
2042 8 3 44.956 20.1906 18.3821 0.00528321 0.000716525 -0.00156838
727 3 1 41.4223 17.5977 14.4161 -0.00429535 -0.00236283 -0.00742035
1434 6 3 41.3121 18.6412 17.036 0.00114921 -0.00443016 0.000612409
299 2 4 40.4265 16.6931 19.7752 -9.77068e-05 0.000313619 -0.00449737
906 4 4 42.7502 15.6008 19.4004 0.00330525 -0.00547525 -0.00370271
1993 8 1 50.7248 19.8277 18.0364 -0.0012951 0.00417526 0.00123683
2120 8 1 49.5233 18.2395 19.2362 -0.00229093 -5.32934e-05 0.00356151
1832 7 4 52.8251 19.9525 16.9157 0.00141678 -0.000134058 0.0045325
1501 6 1 43.6209 19.546 18.5041 -0.00410971 0.00129213 -0.00148933
1457 6 1 47.9259 17.2741 17.2257 -0.00482055 -0.00210893 -0.00273669
861 4 3 46.556 12.4219 20.0391 0.00112339 -0.00817781 -0.00235819
1444 6 1 49.1838 18.4344 23.3194 0.00355756 -0.00416831 0.00167048
798 3 2 52.8898 21.3482 16.3798 0.00733611 -0.00871054 -0.00494172
2040 8 1 55.5545 15.882 16.5477 -0.0066742 0.000894588 0.00541613
1436 6 1 53.7207 20.3737 19.7166 -0.00382175 -0.000750946 -0.00188025
2632 10 4 53.1107 16.1693 18.8848 0.000873573 0.00364664 0.00182852
1461 6 1 53.5301 21.0351 19.3267 -0.00103065 -0.00361766 -0.00156235
1435 6 1 57.7871 20.1141 22.66 -0.00296337 -0.00342256 0.00657748
1991 8 4 1.84768 23.7348 22.1494 0 0 0
2426 9 4 7.28614 27.0778 18.604 0.00810405 0.0022233 0.00692059
251 1 2 2.90608 28.42 19.2691 0 0 0
2087 8 1 3.37687 25.1752 21.2224 -0.00552421 0.000863691 -0.004348
1058 4 1 1.22874 26.1237 22.8926 -0.00368698 0.00293922 0.000990946
1459 6 1 13.6248 31.119 19.8417 -0.00255604 0.0106802 -0.00057486
98 1 1 9.11163 24.8272 15.7433 0.00111219 0.00191638 -0.00426352
2100 8 4 12.7976 23.8141 17.1933 0.00352835 0.000757603 -0.00116435
2678 10 4 14.0645 27.5111 22.0219 -7.8099e-05 0.00303642 0.00147917
1231 5 3 11.4119 25.8364 16.7913 0.00129514 -0.000748875 -0.000125301
471 2 1 10.9475 27.8262 19.0881 -0.0046969 0.00139065 -0.00325239
1309 5 1 5.30325 25.7444 16.3815 -0.00904778 -0.00169575 -0.00134515
2714 10 1 7.2022 29.4658 21.9434 -0.00585976 0.00182487 -0.00528998
2789 10 2 10.2135 38.5928 30.298 -0.0152397 0.0278376 0.016142
2409 9 1 17.7501 24.1656 19.7568 0.0036679 0.00316852 0.00308638
2604 10 1 17.9509 27.5437 17.9397 0.00020258 0.00393593 -0.00123967
1883 7 3 22.0244 29.5707 17.328 0.00125168 0.000163144 -0.00250201
1561 6 1 18.0026 23.332 15.4702 -0.00309769 -0.0014734 -0.00185657
632 3 3 24.983 21.7581 14.8972 0.0102643 -0.00511456 -0.0104166
241 1 2 10.7164 22.7303 14.6232 -0.0193772 -0.00268771 -0.00961151
541 2 2 28.6101 22.9413 30.9099 -0.00246398 -0.0132503 0.0223552
2169 8 1 30.0687 26.8098 19.5058 0.00427194 0.00171915 0.00240695
1430 6 1 24.3209 23.1265 16.57 -0.00291341 -0.00384049 0.0006804
979 4 1 26.024 26.22 15.876 -0.00244981 -0.00328059 -0.00245359
676 3 3 19.6968 22.4708 12.1146 -0.00682564 -0.000916643 -0.00811889
1923 7 2 31.2724 31.4227 26.1134 0.000446688 0.0111397 0.00857809
1278 5 1 37.1606 30.3434 13.4529 0.000759517 0.00896349 -0.00430742
565 3 3 32.2891 25.8209 17.1568 -0.00779142 0.00398412 0.0011144
1261 5 1 31.8323 21.0572 25.8376 -0.00214235 -0.00527495 0.0103331
2091 8 1 35.1979 29.3685 23.8665 0.00296058 0.0011813 0.0028771
1814 7 1 32.768 30.9549 12.5229 0.002105 0.00227678 -0.0156168
2480 9 2 32.4033 24.0604 8.73599 0.00255307 -0.00544972 -0.02736
1961 7 2 43.0955 16.0941 20.025 0.00634791 -0.0268212 0.00859259
278 1 2 34.7362 27.8515 17.8581 -0.0163113 0.00745461 -0.00302641
1711 7 1 39.7991 24.3617 14.5107 0.00229862 -0.00113346 -0.00361647
1600 6 1 42.5567 23.0709 19.879 -0.0038315 0.000501234 -0.000197819
2238 8 2 41.7993 28.1868 18.161 -0.00587544 0.00818727 -0.00800979
1193 5 1 47.4521 27.6374 19.4724 0.00287222 0.00910607 0.00730148
1184 5 1 46.9717 33.1577 13.7992 0.00330094 0.00913415 -0.00588957
1024 4 3 45.9956 28.0652 18.6081 -0.0078296 0.00419936 0.00050143
645 3 3 51.4253 25.0861 21.6757 0.00508662 -0.00428942 0.00245722
36 1 1 52.584 25.2614 22.0485 0.00337678 -0.000107498 -0.00403186
424 2 1 47.7186 31.2165 16.5013 -0.0036183 0.00379481 -0.00445699
394 2 3 50.0834 27.3571 22.2774 -0.00197002 -0.00324512 0.00657381
1931 7 2 58.6286 27.8061 25.0416 0.0163953 -0.00608035 -0.00964127
2506 9 2 55.4053 22.3644 21.357 0.00337321 0.00754612 -0.000902345
1118 4 2 58.2709 28.7148 15.4501 0 0 0
425 2 1 57.3027 24.2635 19.9376 0 0 0
1597 6 1 6.18231 31.2334 14.0342 0.00477758 0.00037181 -0.00400808
528 2 2 0.416205 33.6262 21.0923 0 0 0
2182 8 1 1.47715 35.267 20.3514 0 0 0
1985 8 1 5.14038 32.0462 17.3477 0.0112093 -0.00313716 0.000536577
2002 8 4 2.28369 35.0732 17.7602 0 0 0
815 3 2 55.8013 23.8228 16.7251 0.00131425 0.000333669 0.0224067
2747 10 1 17.23 33.5873 17.5956 0.00532702 0.00644409 0.00426033
487 2 4 9.53963 38.6889 19.5128 -0.00431427 0.00471677 0.00804476
2048 8 4 8.33444 30.031 17.5383 -0.0055503 -0.00639064 -0.00371881
2631 10 1 8.11203 31.7743 21.7371 -0.00364326 0.00597211 -0.00528479
2286 9 4 12.0991 31.5668 21.2621 -0.00307539 -0.00284344 -0.00112798
2264 9 4 11.4967 34.6413 16.6523 -0.00119607 -0.00368033 -0.00157755
1458 6 1 21.5582 40.4123 17.8361 0.00678453 0.00843387 -0.00293905
184 1 4 14.9519 33.7604 15.0679 -0.00207722 0.00353229 -0.00420141
2186 8 1 20.6 37.2614 23.7976 0.0017854 0.00224588 0.00415251
2337 9 3 18.2574 34.4404 19.0106 0.000110087 -0.000506721 0.00124213
1083 4 2 20.229 29.2117 17.6453 -0.0010776 -0.00225906 -0.00386333
871 4 1 20.0239 27.5828 16.7085 -0.00301322 -0.00542625 -0.00353151
2501 9 2 25.907 41.2083 34.4407 0.00230241 0.0122161 0.0282007
2116 8 1 26.7026 35.0947 20.9154 0.00769789 0.00927502 0.00212008
76 1 1 28.2411 31.3506 13.9093 -0.00317339 0.00183513 -0.00501415
2339 9 4 23.9299 36.4839 17.3958 0.00144017 6.27833e-05 0.000529966
913 4 1 25.9103 34.5778 13.9296 -0.000469136 -0.000966632 -0.00423348
2516 9 2 24.161 37.4725 12.3931 0.000656591 0.0116379 -0.014357
860 4 1 30.0905 30.7038 16.6485 -0.00227569 -0.00438164 -0.00282811
102 1 1 35.1108 33.19 12.4685 -0.00125024 0.00173699 -0.0079811
2722 10 4 35.0123 31.3093 18.2269 0.00557146 -0.00698294 0.00210238
1926 7 2 28.5993 28.0501 17.2111 -0.0125245 -0.00399833 -0.00867669
1894 7 1 40.2331 31.1072 18.6941 0.00416402 0.000854648 -0.00118497
2430 9 1 41.4866 32.0829 17.1289 0.00453192 -0.000501225 -0.00330142
1426 6 4 44.7494 29.6982 18.4637 0.000797479 -0.00296196 0.00088594
219 1 1 39.432 31.8584 23.2204 0.00142419 -0.00799712 0.00533428
839 3 2 37.324 29.3734 7.50255 -0.001447 -0.00931433 -0.0204551
2495 9 2 49.3371 38.9174 20.9955 -0.0178778 0.00304339 0.00637602
1514 6 4 52.1537 31.4246 16.4788 0.00168664 0.00555351 -0.0030217
1159 5 1 48.1338 30.4321 22.9945 -0.00356994 -0.00160161 0.00499809
2054 8 1 50.8703 32.733 18.2469 -0.00619167 0.000306559 -0.00447272
721 3 1 49.9859 33.0487 13.6316 0.000923174 0.00218253 -0.00363668
423 2 1 51.3937 34.836 18.0828 -9.7599e-05 0.000957034 -0.000596114
411 2 1 48.3319 36.4126 16.8581 0.00212538 0.00267532 -0.00515238
1226 5 1 50.4791 34.4689 16.6002 0.000151614 -0.00105282 -0.00466796
365 2 4 52.6426 34.0385 22.3476 -0.000512467 0.00101819 0.000618861
1586 6 1 54.7636 35.5309 18.051 0.00168495 -0.00229169 -0.00203787
1543 6 1 57.962 31.277 21.3382 0 0 0
1537 6 4 56.0031 35.9349 20.9291 0.000943291 0.00232519 0.00260005
617 3 1 54.4873 31.2349 19.4627 -0.00143084 -0.00076443 -0.00247581
856 4 1 57.9699 36.355 22.4343 0 0 0
1056 4 1 0.903568 41.3577 22.179 0 0 0
1140 5 1 2.64434 43.4376 21.9976 0 0 0
1060 4 3 8.46982 44.5959 18.426 0.00506373 -0.00129659 -0.00172045
1526 6 4 1.75124 40.2183 21.2365 -0.0053238 -0.000386578 -0.00070643
1888 7 1 10.3102 38.7237 18.1775 -0.00127637 0.00238275 -0.00209349
2174 8 3 12.1669 44.1906 18.7498 0.000275374 0.00463432 0.00253156
1787 7 1 11.862 46.1381 14.5821 -0.002404 0.00682442 -0.00467137
1622 6 1 7.06274 44.8311 15.9555 0.000904996 -0.0152128 -0.00426291
1383 5 2 13.0716 50.9575 24.8681 -0.00639828 0.0122669 0.00999923
2540 10 1 20.1519 40.6445 17.046 0.000823981 0.00307749 0.00147839
2289 9 1 15.4858 43.7568 20.8642 -0.00323024 -0.00018303 -0.000680757
511 2 2 8.80244 49.2357 21.2096 -0.019098 0.00840736 0.00623492
1737 7 1 15.6691 45.8037 18.058 -0.00272518 0.00255153 -0.0054532
2281 9 1 25.2291 33.0036 10.8644 0.0102121 -0.0115968 -0.012523
2796 10 2 29.7857 37.5978 21.1725 0.00891646 -0.0061217 0.00961229
2454 9 1 26.0177 45.4411 17.157 0.00255854 0.0118118 -0.0024056
2648 10 1 24.4397 47.1412 18.5993 -0.00035065 0.00622383 0.00186045
952 4 1 26.1323 44.4538 26.4442 -0.00419474 0.00173056 0.0108234
1962 7 2 17.7062 41.3817 21.5994 -0.0138306 -0.00256242 0.00574455
1625 6 4 29.1175 38.3225 19.7834 -0.0048643 -0.000214894 0.00122049
912 4 1 36.7407 37.4211 18.9404 0.00167394 -0.000617173 -0.00305812
869 4 1 29.6995 39.1469 18.7203 -0.00143249 -0.00301082 -0.00279334
45 1 1 31.4023 36.7889 19.9386 -0.00261014 -0.00608423 -0.00305649
1189 5 4 39.0915 38.1632 20.1558 0.00171669 -0.00163237 0.00778756
1029 4 1 48.5663 38.3406 15.9248 0.0147135 -0.00161507 -0.000518842
449 2 1 44.0673 41.8156 16.6441 0.000728267 0.00294792 -0.00209078
286 2 1 43.0611 37.3348 12.039 0.00112543 -0.00743804 -0.0069038
1230 5 1 42.9543 39.8467 19.1758 -0.00171893 -0.000145858 -0.00385283
573 3 1 44.572 34.8352 19.4603 -0.0023286 -0.00765675 0.00576705
1769 7 1 49.7263 42.3843 23.7359 -0.00485736 0.00665086 0.0068747
2348 9 1 52.5524 42.9906 15.3499 -0.0016775 -0.000442359 -0.00579601
19 1 1 48.1437 38.0787 16.544 0.00237234 -0.00593106 -0.005786
849 4 1 49.3835 38.6719 20.3214 -0.000782781 -0.00199078 -0.00406565
2394 9 4 56.5752 44.5372 17.6429 0.000896624 0.00129031 -0.000216784
2088 8 1 59.046 39.6167 17.9419 0 0 0
2158 8 4 59.1242 40.981 21.2774 0 0 0
533 2 2 59.9009 44.6245 19.5338 0 0 0
971 4 3 58.7693 37.9832 22.3454 0 0 0
1448 6 4 4.148 48.209 17.0842 0.00722431 -0.00213699 0.00296562
2094 8 1 8.17462 44.8864 21.238 -0.00235666 -0.00242135 -0.0153024
2493 9 2 1.02646 47.4393 20.4181 0 0 0
2333 9 1 2.3898 50.7251 18.4505 0 0 0
2375 9 1 11.3295 49.0442 20.0433 0.00914281 -0.00483577 -0.000926805
2693 10 1 6.79298 47.02 16.2157 -0.0062691 0.00703592 -8.21443e-05
457 2 1 0.94647 51.939 18.892 0 0 0
652 3 1 1.17153 45.4897 22.2633 0 0 0
1415 6 1 0.955458 52.0053 22.1261 -0.00170386 0.00501534 0.00175372
1453 6 1 6.24442 45.399 19.2836 -0.00686453 -0.00628251 0.00383615
2341 9 1 14.0212 50.3226 18.6005 0.00264596 -1.87808e-05 0.00265346
2585 10 1 10.0304 55.8799 17.4843 -0.00010252 0.00873218 -0.00222815
1840 7 4 12.1164 41.4597 13.6416 -0.00119693 -0.00863146 -0.00585507
1424 6 1 9.21495 50.6539 22.7136 -0.00658521 0.00183458 0.00160132
1292 5 1 11.5361 48.588 14.937 -0.00357278 -0.000143593 -0.0031736
256 1 2 16.6514 43.301 21.8036 -0.00352513 -0.0074644 0.00720872
2300 9 1 17.5564 45.9283 16.1831 0.00454369 -0.000126738 -0.0032873
2063 8 1 28.0413 46.8413 20.352 0.012617 0.0014309 0.0028234
2306 9 4 17.9952 48.7288 20.4045 -0.00301376 0.00214776 0.000261105
2784 10 2 8.82722 46.8681 14.7824 -0.0180143 0.00573905 0.000928827
2769 10 2 33.2043 41.3115 17.1898 0.0117835 -0.0159372 -0.00146515
2118 8 1 23.6503 47.5803 16.7171 0.00202947 -0.00568215 -0.000556178
103 1 3 24.6257 47.7003 23.0097 -0.00314265 -0.00753334 0.00607855
2272 9 4 38.3268 49.5689 21.7878 0.00270135 -0.000596428 -0.000392632
755 3 3 36.3136 50.1854 17.1491 -0.00136708 0.00630087 -0.00583777
1401 5 2 51.6006 37.4309 18.4863 0.00322384 -0.00564081 0.0022048
824 3 2 48.6906 27.4962 11.1112 0.0160191 -0.0392228 -0.0113538
1443 6 1 45.1384 51.5245 18.9378 0.00280388 0.00217789 0.000798164
1262 5 3 37.6319 47.4597 17.9051 -0.000709819 6.57467e-05 -0.00332817
1805 7 1 40.0717 47.5966 17.963 -0.00625777 -0.000150525 -0.00173846
1350 5 2 41.627 45.3114 10.7041 -0.00287741 -0.0139347 -0.0171032
2206 8 2 49.5787 54.905 21.5358 0.00829815 0.0059646 0.0109606
1948 7 2 49.6948 42.6523 20.7296 -0.0118962 -0.014816 0.0143995
2111 8 1 45.0825 49.3259 19.1638 -0.004525 -0.000507443 0.00425673
265 1 2 46.4194 49.8417 27.3121 0.00272568 0.00610035 0.0115652
2611 10 1 51.403 49.8418 18.3434 -0.00343421 -0.000255934 -0.000347547
1717 7 1 48.0672 54.0946 18.2279 0.00343685 0.00430532 -0.00349662
1202 5 4 52.1368 50.6135 13.8422 -0.0037213 -0.00377675 -8.73038e-05
2293 9 3 44.0506 51.8953 22.0764 -0.0103657 0.0027167 0.0017751
1486 6 1 49.8641 50.601 12.8446 -0.0024076 0.000500071 -0.00720574
1330 5 1 50.1132 43.9295 14.8944 0.000440831 -0.00229351 -0.00263112
1161 5 1 50.2296 48.6433 21.4 -0.00377526 -0.00202802 0.000670209
840 3 2 50.0533 44.2803 15.2887 0.000904852 -0.00717174 -0.00694126
571 3 1 47.2558 48.6694 11.4133 -0.00141364 -0.00516492 -0.00798715
2800 10 2 3.21483 49.6836 10.3955 0.0106188 -0.0132799 -0.0139457
2813 10 2 5.59538 41.8218 12.2422 -0.00152738 0.0127703 0.0117489
2689 10 1 58.3509 47.0591 19.7983 0 0 0
2819 10 2 50.7834 47.9698 20.5601 -0.0149766 0.00583038 0.00927298
1902 7 1 58.7237 43.9812 21.6025 0.00259646 -0.00255008 -0.000119482
1002 4 3 3.70636 58.2655 17.458 -0.00186234 0.00345437 0.00191914
2244 8 2 10.2504 55.3008 15.3536 0.029378 -0.0156227 -0.015459
2382 9 4 12.0255 58.9083 21.2177 0.00130885 0.00484584 -0.000677057
1729 7 3 11.5931 54.9229 16.6191 0.00465369 -0.00233393 -0.00108822
267 1 2 4.02262 53.1881 13.537 -0.0248696 -0.0436868 0.0267183
845 3 2 18.0094 45.0758 29.5981 -0.00713493 -0.0182034 0.0183878
1256 5 1 19.4991 53.0557 20.7858 -0.00515598 0.00103255 0.00943976
2806 10 2 23.7955 6.78038 12.8302 0.0118262 0.014423 -0.00594764
1554 6 1 22.239 56.9098 19.4692 0.00675228 0.00351715 0.00376474
2603 10 1 18.8685 56.0435 21.3053 0.000163709 -0.00227151 -0.000986542
2276 9 1 25.3891 53.8851 14.4461 0.00677144 0.000731381 -0.00722033
2639 10 1 24.4518 52.1989 15.515 -0.000978434 -0.00457082 0.000666208
1498 6 1 23.0698 52.4131 13.5858 -0.00344984 -0.00971399 -0.00427624
1617 6 1 27.5055 55.0944 18.7407 -0.00454909 0.00332389 0.000337341
2168 8 1 30.2766 57.9047 21.0748 0.0105187 0.00385022 0.00495557
2544 10 4 30.5601 49.8495 17.5213 0.00311881 -0.00731809 0.00108265
2457 9 1 27.4658 56.1747 15.9021 0.00272516 0.00139915 -0.00242538
1291 5 1 22.0602 57.3496 16.363 -0.00139636 0.00210452 -0.00260639
1483 6 1 28.7034 0.444681 19.5407 -0.00112291 0.00479414 -0.00236966
630 3 1 24.7738 1.10624 20.3067 -0.00621724 0.00747025 -0.00260846
2226 8 2 45.6749 12.0777 31.6026 0.0238231 0.0368218 0.0221366
2310 9 1 31.3494 55.5337 17.9369 0.000256084 0.00411394 -0.000635225
176 1 1 30.9664 56.3316 19.8052 0.000692873 -0.00394107 -0.00279016
85 1 1 28.8972 56.5252 17.3875 -0.00294896 0.00649605 -0.00534509
2296 9 1 42.3359 54.2195 15.8139 0.00190639 0.0025657 -0.00148563
2257 9 3 40.3068 55.9325 17.704 0.00435096 0.000259705 -0.0011082
2045 8 1 46.216 53.8285 18.8696 0.005144 -0.00471291 -0.00131367
1521 6 1 43.0199 1.19031 21.6584 -0.00147722 0.00389386 -0.00133753
2755 10 1 52.4117 56.2103 20.7246 0.00294009 0.00593582 0.00283372
2364 9 1 50.0554 55.5697 22.4745 -0.00232935 -0.0033718 0.000667974
2657 10 1 45.8147 51.9515 20.3198 -0.00835254 -0.0040281 -0.00326855
62 1 1 46.983 1.66559 19.8004 -0.0029923 0.00678081 -0.00144639
1062 4 2 52.3538 52.2227 11.0512 -0.0139892 0.00493844 0.0102793
1088 4 2 48.5024 50.9346 25.045 -0.00710498 -0.0108471 0.0124899
2581 10 1 59.7319 57.4576 16.6179 0 0 0
786 3 2 57.2994 59.1852 20.0654 0 0 0
1519 6 1 57.7415 57.7043 17.2876 0 0 0
1066 4 1 53.6644 59.8099 21.8962 0.000965805 0.00165979 -0.00116367
627 3 1 0.265009 5.87657 27.1366 0 0 0
2353 9 1 0.818609 3.09488 25.722 0 0 0
2641 10 3 6.41862 8.81449 25.5304 -0.00644069 0.00404624 0.00602951
316 2 1 4.84088 6.10733 27.1301 -0.00116417 0.00733077 0.00196506
1279 5 1 5.93623 0.904167 24.3091 0.00634484 -0.0077471 0.00374507
2720 10 4 4.89728 0.169695 27.539 -0.001125 0.00619046 -0.00539222
2808 10 2 11.3221 4.98903 34.9055 0.0133467 -0.00157029 0.0398087
17 1 4 13.7498 1.51004 23.9653 0.00460346 -0.00264836 0.000949507
2229 8 2 21.7194 6.1082 31.5418 0.0173012 0.00402113 0.00424239
115 1 1 7.66776 3.84898 27.7262 -0.00397218 0.00271151 -0.000738345
168 1 1 11.9827 0.624567 27.277 -0.00375007 -0.00304029 -0.000742607
1297 5 3 11.6444 4.17483 30.0235 -0.00375593 0.00294317 0.000529491
896 4 4 13.9363 7.04522 22.5406 0.00495163 0.00733748 -0.00176167
257 1 2 16.0022 5.03325 22.4897 0.016334 0.00916997 -0.0106477
2095 8 1 20.5124 58.3771 25.5936 0.00041187 -0.00462718 0.00320232
2780 10 2 38.0346 10.5075 39.1552 0.0208678 0.00974675 0.0241106
1399 5 2 25.326 2.7234 32.7342 -0.00274441 -0.00946592 0.0129258
1827 7 1 31.7889 59.6586 31.1862 0.0143086 -0.00230858 0.00401715
1013 4 1 25.4805 4.80114 26.7804 -0.000250296 0.00421523 0.00142368
1592 6 4 21.4384 3.93195 30.1172 -0.00397992 -0.00464641 0.00188525
2630 10 1 34.6419 5.43622 27.8595 0.00131678 -0.00170836 0.00210911
320 2 4 29.2634 3.36331 25.2843 -0.00484012 -0.00286254 -0.00303393
328 2 3 33.9034 59.5089 21.5906 -0.00411692 -0.00483103 -0.00317829
464 2 4 32.6801 4.43822 21.8019 -0.000875372 0.00802264 -0.00203562
175 1 1 35.0221 3.18505 29.1875 0.00133683 -0.00301839 -0.000979707
2236 8 2 42.9494 6.01774 29.4281 0.00581568 -0.00114525 0.013812
887 4 1 39.7942 3.61414 28.3923 0.00254084 0.00218903 -0.00140314
11 1 1 40.3413 1.25886 24.0469 0.00097326 -0.00133663 -0.00519381
853 4 1 43.7214 5.5586 29.6815 -0.000263911 0.00279672 -0.000225293
1305 5 1 39.4371 2.47372 29.458 -0.00647864 0.00309233 0.000193208
1398 5 2 50.247 0.929025 17.3522 0.0153526 0.0016772 -0.0137142
2228 8 2 51.1311 2.75572 27.9287 -0.00339348 -0.0236919 0.0124001
2424 9 1 52.5619 6.53678 28.2392 0.00151426 0.000354512 -0.000719328
855 4 1 46.6785 4.65016 25.3162 0.0004547 0.00235843 -0.00149557
2058 8 1 51.2445 59.961 27.8387 -0.00336792 0.000909237 -0.0061823
301 2 1 46.766 0.525869 25.3615 0.000572802 -0.00302143 -0.0033349
389 2 1 51.8319 4.0702 30.0317 0.00423742 0.00641759 0.00053326
23 1 1 48.0925 4.90192 27.3261 -0.00164429 -0.00518887 0.00133535
2492 9 2 43.3137 5.09423 19.4988 -0.0121843 -0.00309735 -0.0131114
1344 5 2 45.3713 11.7281 17.8643 -0.00173154 0.0150632 -0.0146715
2179 8 4 56.5948 3.1964 26.1279 -0.00167614 0.000873465 0.00195865
553 2 2 58.1971 4.98677 26.982 0 0 0
561 2 2 55.3786 8.42166 23.3593 0.00669907 0.020756 0.00262093
2675 10 1 55.9785 1.81698 29.3154 0.00155439 0.00170501 0.000194832
2115 8 1 0.312643 12.4657 24.6361 0 0 0
2606 10 3 1.43198 10.293 23.435 0 0 0
2239 8 2 55.0744 58.7687 16.6722 -0.00584772 0.00926553 -0.0123242
2145 8 4 7.43824 14.0366 28.0022 -0.00299274 0.00715278 0.00137484
2453 9 1 9.9593 10.7812 21.6709 0.00110065 0.00379355 -0.00179433
2103 8 1 16.0115 11.6223 31.9303 0.00631081 0.00328946 0.00583741
2598 10 4 12.9295 9.45059 27.7756 0.00625016 0.00253925 0.00488025
240 1 2 21.2626 12.771 47.1789 0.0311021 0.0132873 0.0420657
502 2 1 18.3832 7.60221 27.268 0.00558179 -0.00645219 0.00929713
2126 8 1 21.6483 12.0976 37.8372 0.00654552 -0.00113945 0.0173921
2688 10 1 25.426 16.519 22.6596 0.00763163 0.0040254 -0.00134164
2610 10 4 16.266 14.0768 25.7935 -0.000846995 0.00100655 1.451e-05
698 3 3 13.4095 13.6393 25.8864 -0.00751629 -0.00181853 -0.00334352
2071 8 1 24.0688 5.10697 23.5442 0.016915 -0.00572339 -0.0121129
2476 9 1 29.018 12.6497 23.8417 0.0025846 0.00328194 0.000584537
1804 7 3 23.0145 14.0935 28.4395 0.000178096 -0.00021791 -0.000236691
1099 4 2 33.7851 16.0586 17.4112 0.00963681 0.00714172 -0.0138166
2731 10 4 34.1891 8.34169 31.2226 0.00502482 -0.000585661 0.00518112
978 4 1 34.0348 15.035 25.6049 -0.000988833 0.006683 -0.000369823
1793 7 1 32.897 14.9823 27.5999 0.0021698 0.000827067 -0.00137742
59 1 3 33.0778 9.68852 24.8851 -0.00254683 -0.0010209 -0.00180658
2078 8 4 34.5997 11.3566 30.0698 0.00130535 -0.00189089 0.00365877
2404 9 4 34.4861 6.69337 23.649 0.00303742 -0.00558993 0.000440998
1445 6 1 31.5889 5.85097 27.2684 0.000340377 -0.00698721 0.00234228
1665 6 2 36.4063 58.9709 29.1945 0.0104745 -0.019838 0.00144571
1352 5 2 46.351 4.34217 32.6022 0.011858 -0.010405 0.011373
1758 7 1 46.6546 7.27955 30.3002 0.00474253 -0.00350729 0.00869244
1810 7 4 40.8265 12.2542 23.9 0.0033125 -0.000709752 -0.0012696
829 3 2 40.4176 20.1434 29.3732 -0.000433473 0.0115189 -0.000555955
1472 6 1 44.0106 12.1975 27.4332 0.00296393 -0.00473029 -2.47586e-05
1639 6 2 51.8416 11.1199 29.7728 -0.0226511 0.0182015 -0.000423888
1071 4 2 51.6799 6.71066 25.9255 -0.00328581 -0.000931192 -0.000346076
1972 7 2 55.1338 14.047 29.4748 0.012084 0.0116959 0.000768972
936 4 3 50.3333 14.5659 22.3849 0.00197187 0.00819438 -0.00263562
1179 5 1 49.3941 11.8865 26.1386 0.00382502 0.00442331 -0.00354787
1048 4 1 46.9199 17.3138 23.1828 0.000335976 0.00562697 0.000243766
589 3 1 43.1381 11.1298 29.8172 -0.00755101 -0.00449889 0.000160782
2750 10 1 57.6097 6.74461 26.6033 -0.00218274 -0.00208254 0.0044282
807 3 2 52.1497 12.0249 26.6625 -0.0075442 -0.000925577 -0.00994786
2215 8 2 48.1701 11.564 22.1793 -0.00905508 0.00291052 -0.0162324
2132 8 1 52.662 9.45004 24.7873 0.00155345 0.00274694 -0.00321582
480 2 1 53.3993 12.2843 30.2686 0.00228056 -0.00152747 0.000357964
534 2 2 58.4041 7.75726 26.8592 0 0 0
235 1 2 57.6062 12.0366 24.0829 0 0 0
2451 9 1 59.3011 12.9251 26.8255 0.00340926 0.00163542 -0.00108179
1681 6 2 49.1625 13.9762 26.7214 -0.00806938 0.000653841 -0.00457783
2009 8 1 6.24136 20.3144 27.0619 -0.00306135 0.0069684 0.0035089
2389 9 1 7.31924 16.6648 24.285 0.00220679 6.5111e-05 0.00350177
2556 10 1 7.69484 17.0994 24.0855 -0.00189255 0.00210942 0.00656094
2597 10 3 58.195 28.2184 25.71 -0.00808754 0.0140933 0.00131993
2066 8 1 2.43359 20.1375 29.0739 0 0 0
2608 10 1 0.0472505 20.9864 22.8536 0 0 0
2256 8 2 2.27825 18.5443 25.8712 0 0 0
1353 5 2 0.238048 21.5039 25.4909 0 0 0
2311 9 1 11.7342 12.9807 23.1109 -0.00364856 -0.00439066 0.000887582
2672 10 3 10.3886 21.6621 23.9209 0.0019044 0.0099486 -0.00382379
2574 10 1 9.2552 23.4533 26.58 0.0117741 0.00527258 -0.000542651
2674 10 1 9.03382 23.1645 27.1772 -0.00127904 0.0023157 0.00244984
2615 10 1 9.75457 18.8777 23.1124 0.00281273 0.00100268 -0.00192153
2031 8 1 9.88231 18.8544 25.9361 -0.000728537 6.4481e-05 -0.000753589
1779 7 1 11.7659 18.1742 28.0085 0.00389338 -0.00105971 -0.00136503
2070 8 4 13.0618 16.9765 31.0406 -0.00256184 -0.0011073 0.00250772
1824 7 1 8.69741 20.0632 26.5218 0.00193869 0.00709411 0.00101145
922 4 1 7.66025 20.9016 31.5033 -0.00789967 -0.00406945 -0.00317466
1560 6 1 19.4728 20.9492 27.8539 -0.00305325 0.0100476 0.00049118
172 1 1 23.6936 19.2701 23.5878 0.0061126 -0.00131846 0.00103264
1335 5 1 18.7501 20.7471 27.6063 -0.00624259 0.00528903 -0.000629135
741 3 1 18.2076 17.897 21.6353 -0.00445928 -0.000324404 -0.00342175
378 2 4 14.4512 20.3881 33.7327 -0.00521137 -0.00218938 0.00864934
2446 9 1 28.4576 19.4031 28.8682 0.00276932 0.00729982 -0.000697165
2016 8 1 25.1862 16.3866 24.5034 0.00353005 -0.00157728 -0.000537512
2730 10 4 28.1073 20.7968 26.6502 0.00312625 0.00189377 0.00366144
1905 7 4 28.3468 19.143 25.2142 0.000852551 -0.000687392 0.000325044
1751 7 3 27.7514 21.7477 23.6649 0.000592474 -0.00116206 -0.00498381
1106 4 2 29.4242 18.8067 9.81401 -0.000775162 0.00682414 -0.0276968
1986 8 1 21.2846 15.525 21.1282 -0.00971807 -0.0025146 -0.0102684
2328 9 4 36.7229 14.1705 25.3602 0.00255917 -0.0041567 0.00232324
1549 6 1 29.837 16.9964 30.0483 -0.001863 -0.00347432 0.00122927
822 3 2 29.826 16.9158 23.9175 -0.0040086 -0.00154484 -0.00405011
625 3 4 33.4144 16.9017 28.503 -0.00426733 -0.00070047 -0.000458001
1462 6 4 37.3072 20.4812 28.5324 0.00200405 -0.00305235 0.00169488
517 2 2 40.1908 32.1473 16.1178 0.0177578 0.0241607 -0.0179434
2218 8 2 38.2586 13.0095 22.642 0.00243693 -0.0131915 -0.0119666
1059 4 4 40.6935 18.6435 25.3893 -0.00169289 0.00605391 -0.00031454
2673 10 1 42.844 18.2611 30.3904 0.0050934 0.00152441 0.00309848
156 1 3 38.0499 15.2031 25.553 0.000379771 -0.000453981 -0.00107539
616 3 4 40.7833 22.0697 26.6561 -0.00294034 0.00145353 -0.000927173
2410 9 1 44.7012 19.1606 23.177 0.00481704 -0.00260828 -0.000355608
1273 5 1 41.2264 16.9436 23.9807 0.00109428 -0.00558168 -0.00226445
503 2 1 37.4938 15.3375 29.5602 -0.00771291 -0.00538505 -0.000430242
433 2 1 38.6212 7.79343 27.1478 -0.00133497 -0.0161455 -0.00141764
784 3 1 35.6589 22.8701 26.6976 -0.00413762 0.00107922 -0.00587028
1687 6 2 48.0388 22.3469 11.3408 0.0177263 0.00521599 -0.033224
837 3 2 46.5025 16.1198 27.4094 0.000631299 -0.0120426 0.00794609
482 2 3 48.6567 15.6322 22.2362 0.00325674 -0.000250552 -0.00356456
1571 6 1 53.2008 22.9391 25.4881 -0.000585505 0.0034037 0.000707149
1688 6 2 1.50747 13.3809 21.1005 0.0198994 -0.00999791 -0.00621622
1694 7 1 56.1433 14.4377 26.1411 -0.00291033 0.00329583 0.00653337
1838 7 1 57.7496 16.188 26.5624 0.00729092 -0.00505164 0.00057729
2586 10 1 58.5571 16.8788 25.5412 0 0 0
2117 8 1 59.828 19.6821 29.8773 0 0 0
157 1 1 57.7089 22.1639 22.0753 0.00184791 0.000688773 -0.00764019
783 3 1 54.6685 20.3187 23.9959 0.00191663 0.00575682 -0.00354549
1645 6 2 59.3971 16.8619 28.4504 0 0 0
2554 10 4 1.65902 25.232 26.0868 0 0 0
826 3 2 4.1573 27.1878 23.7826 -0.00842834 0.00517102 0.0272986
2005 8 1 4.41835 22.5 29.5438 -0.00553082 -0.011622 -0.00492726
2170 8 1 13.2678 24.028 25.3416 0.000443766 0.001286 0.00354991
2658 10 1 7.10817 27.0654 27.3238 -0.0108536 0.0055007 -0.0035107
1871 7 1 22.8259 31.159 26.9962 0.0130266 0.00852331 0.00327173
1460 6 4 19.9055 27.5205 25.9949 0.00502456 0.00191078 0.00108194
2612 10 4 21.821 27.4069 25.1221 0.00057381 0.00415959 0.000586021
2616 10 1 21.3997 27.9679 28.7735 -0.000286659 0.00389858 0.0014989
2542 10 1 17.3425 26.6285 29.178 0.000593303 0.000615693 0.00374999
2584 10 3 19.3739 29.4524 22.7612 0.00199418 0.00343707 -0.00102417
2432 9 1 17.1638 26.5214 23.9854 -0.000179632 -0.00184832 -0.00193893
1506 6 4 16.335 21.667 26.7566 -0.00515879 -0.00429979 -0.00121048
1830 7 4 21.9688 22.9742 27.2088 0.000495768 0.00018563 -0.00213624
986 4 4 28.1248 26.7486 26.6921 -0.00161443 0.00840732 -0.000280389
467 2 1 24.63 22.9594 26.2007 -0.002174 -0.0118833 -0.00148687
1792 7 1 37.9394 30.9038 33.9953 0.00282387 0.00387136 0.0116763
142 1 1 34.9193 23.9222 22.0193 -0.000410542 0.00145083 -0.00343215
2418 9 4 34.9386 24.2521 24.0894 0.00226612 -0.00175977 -0.000685918
438 2 3 30.907 22.0614 25.5144 -0.0027222 -0.00136472 -0.00102032
1463 6 1 36.9083 22.6761 24.2585 0.00208126 -0.00307098 3.51062e-05
2568 10 4 31.1612 28.8646 28.9511 -0.00722675 0.00221532 0.00209043
1136 5 4 35.0493 27.9056 29.3157 -0.00296975 0.00643613 -0.00119286
1391 5 2 30.7359 32.2911 16.964 -0.0111198 0.00898911 -0.020663
1111 4 2 39.1971 26.8804 38.113 0.00273341 -0.00295671 0.027382
2194 8 1 41.0739 17.2552 25.7994 0.00505078 -0.0147894 0.00360929
25 1 1 41.4521 25.6454 26.2435 0.000468621 0.00417387 -0.00335329
1862 7 4 41.2959 26.8602 25.6756 0.00617598 -0.00107096 -0.00313369
463 2 1 45.1125 30.6563 26.7598 0.0018923 0.00163485 -0.00109784
962 4 4 35.0159 23.7075 24.5314 -0.00747496 -0.00518204 -0.00057702
795 3 2 39.427 35.0455 21.7187 -0.00332221 0.0168593 -0.0142791
2523 9 2 50.4841 27.5057 41.424 0.00667882 -0.00109206 0.0260472
763 3 1 49.3519 28.555 30.2234 0.000840781 0.002109 0.00803729
1497 6 1 42.2879 28.6365 25.0936 -0.00565608 0.00347934 0.00505818
247 1 2 53.8626 29.1576 22.9805 0.00821665 0.0184579 0.00966915
2549 10 1 51.8654 25.0689 29.3123 0.00361764 -0.000203348 -0.00216875
1570 6 4 50.0021 24.9517 24.353 -0.00468787 0.00280021 0.00205194
1585 6 1 44.7949 27.4687 25.343 -0.0025819 0.000676937 0.000736984
437 2 1 47.9147 25.4494 26.492 0.000677134 -0.00075212 -0.00110721
2562 10 3 49.5406 32.2985 26.7698 -0.000935296 0.00503309 -0.000470856
390 2 1 48.3124 31.3798 23.0311 -0.0029099 0.00442074 -0.0017537
135 1 1 43.8917 23.9231 26.6213 -0.00537985 -0.00402632 -0.00241984
1032 4 1 55.9513 26.2912 23.2302 0.00312987 -0.000772852 0.00472035
974 4 1 53.2799 24.8177 28.5471 0.003544 0.00361612 -0.00201653
2558 10 1 1.82132 27.5634 27.2919 0.00619817 0.00479591 0.00464732
1572 6 4 58.9368 25.5521 22.5177 0 0 0
2025 8 1 55.4938 25.1445 25.0265 0.00410961 0.0020251 0.00332502
319 2 3 57.6402 27.4331 24.2682 0 0 0
332 2 4 59.9691 27.7426 26.9625 0 0 0
2442 9 1 58.9559 25.9872 29.6479 0 0 0
1632 6 2 52.905 27.6167 29.2585 -0.00885498 0.001016 -0.00330998
2526 9 2 52.6435 30.9523 27.7402 0.00491441 -0.0112292 -0.00787674
2192 8 1 1.8632 29.5755 28.2676 -0.0049742 -0.00200635 3.96758e-05
524 2 2 55.1689 30.0198 30.9158 0.000300793 -0.0228472 -0.00232168
1602 6 4 0.548567 35.0457 23.1946 0 0 0
1868 7 1 1.74182 36.2963 24.8236 0 0 0
2387 9 1 0.724449 34.854 24.5218 0 0 0
1473 6 1 6.90997 31.8744 29.6164 -0.00643376 -0.00885369 0.00458634
2759 10 1 59.8968 28.4469 28.5147 -0.00541021 -0.00602837 -0.00011087
2235 8 2 23.6575 33.5845 41.3073 0.0234902 -0.00230189 0.0324826
2290 9 1 12.0209 33.5105 28.6985 0.00362203 0.00522377 -6.94715e-05
1163 5 1 14.716 41.7118 20.3082 0.00548049 0.0122308 -0.00620662
1037 4 3 6.74494 31.9934 26.0085 -0.00555687 -0.00628882 -0.00116804
2591 10 1 9.53443 36.902 29.1552 -0.000604515 0.00523999 8.96478e-05
2415 9 1 11.8726 37.0859 28.4002 -0.00190728 0.00127837 -5.79593e-05
934 4 1 10.0334 34.8063 28.4845 0.0167726 0.000816575 -0.000603554
547 2 2 32.1923 38.3367 27.4177 0.032282 0.00912323 0.00758124
1450 6 1 20.9031 30.6295 26.2637 -0.00149398 -0.00174469 0.00186353
1382 5 2 17.8565 33.7652 19.4379 -0.0064059 -0.00278035 -0.0153326
529 2 2 22.956 26.1572 27.9521 -0.00246579 -0.0134288 0.00753682
2552 10 1 27.4978 31.8355 27.1555 0.00327016 0.00204931 0.0026823
2142 8 1 30.6708 34.9153 27.1382 0.00488396 0.00513485 0.00178685
1583 6 1 24.4751 32.6476 30.384 -0.00293717 0.00176472 0.00188621
1164 5 1 21.6132 33.2551 25.9586 -0.00248235 -0.00465138 -0.00332989
2762 10 2 19.5204 38.0547 24.0657 -0.0106149 0.0153293 -0.00943587
1173 5 1 35.1122 31.3574 29.8197 0.000739439 -0.00432993 0.00896474
569 3 1 34.7263 36.0996 26.1391 -0.00417133 0.00443173 0.00691403
1705 7 1 37.5304 33.8607 28.6145 0.00147908 0.00105775 -0.000237706
143 1 1 34.3536 38.7249 23.2155 -0.000733883 0.00401559 -0.0029967
1211 5 4 35.3688 33.5955 23.1051 -0.000988238 -0.00108189 -0.00305739
358 2 1 32.87 35.6728 23.4269 -0.00232579 0.00047757 -0.00372582
1851 7 1 41.9235 36.6568 21.2454 0.00563329 0.000960553 -0.00456231
452 2 4 44.7069 37.9342 24.887 0.00103659 0.00200444 -0.000387007
1556 6 1 41.4524 37.2346 22.6764 0.00109068 0.000961922 -0.000290913
969 4 1 38.4849 34.8657 28.7063 -0.000980627 -0.00143346 0.000309655
326 2 1 38.1496 33.8389 25.4235 -0.00318969 0.00240477 -0.00272889
995 4 4 40.7309 35.5754 29.5103 0.00205678 -0.00171452 0.000270067
1131 5 1 43.9175 28.8597 28.2311 0.0106763 -0.00561405 -0.00203057
1390 5 2 51.5045 28.7828 14.8191 -0.0241003 -0.00597942 0.00207567
1354 5 2 45.0183 44.9007 34.2842 -0.00937967 0.0211416 0.0161095
1892 7 3 51.4901 32.1911 26.5062 0.00107152 -0.000889563 -0.00839439
2050 8 1 51.641 37.7509 28.9991 0.00549956 0.00091822 0.00307804
1614 6 4 48.5083 37.5786 30.939 -0.00123338 0.000793355 0.00301363
148 1 4 52.3556 31.6832 29.45 0.00342711 -0.00243344 -0.00586037
1575 6 1 43.1623 34.7998 24.5612 -0.00438369 -0.00185425 0.000806502
702 3 4 46.8394 32.8365 26.0413 -0.000890911 0.00156989 -0.00321973
543 2 2 50.8822 45.5138 14.783 -0.00351131 0.0198531 -0.015167
1069 4 2 43.9251 25.6091 23.7455 -0.0319291 -0.0119546 -0.0057163
1511 6 1 56.5951 31.0354 24.2686 -0.00215508 0.00399564 0.00592468
2386 9 1 56.2061 29.7926 31.0483 -0.00347683 0.00508668 0.00713179
158 1 1 58.8644 30.8717 26.9557 0 0 0
1802 7 1 59.3483 35.4149 26.8236 0 0 0
1609 6 1 52.7714 37.0889 27.783 0.00132349 -0.00273169 0.000509565
1484 6 4 53.1622 38.4153 26.3342 -0.00300607 0.00455471 0.0034901
1057 4 1 3.58911 35.7968 23.5947 0.00244504 -0.00197206 -0.00536606
2421 9 1 3.99297 38.3139 26.4304 0.00419062 0.00429555 0.000175752
2799 10 2 0.991789 41.2592 24.1397 0 0 0
1345 5 1 8.44275 39.8864 28.0838 0.00859561 0.00737291 0.00464876
1853 7 1 10.9465 39.4981 23.5701 -0.000781906 0.00138663 -0.00400498
1283 5 1 7.1307 44.6559 25.9426 -0.00358181 0.00451428 -0.00563787
972 4 4 12.6387 44.124 25.3237 0.00926448 0.00175529 -0.00488879
2295 9 4 13.0271 43.8653 22.547 -0.00360918 0.000465259 -0.000603397
2101 8 4 13.6743 39.6288 29.0101 -0.000732147 -0.00866784 0.00330602
125 1 3 13.7263 41.1045 29.8965 -0.00413414 0.0044653 0.00842891
2340 9 1 16.9403 39.1796 24.5196 5.66641e-05 0.000268711 0.00244231
1776 7 1 17.5066 42.1255 22.419 -0.00100267 0.0053029 -0.0040992
2189 8 4 15.6142 43.0295 28.1187 0.00093043 0.0033497 0.00521893
1310 5 4 19.9949 41.7495 25.4927 -0.00325681 -0.0015401 -0.000424668
642 3 1 17.8637 43.3742 24.7235 -0.00776787 0.00290804 -0.00254469
808 3 2 13.8188 38.4534 28.8763 -0.00915104 0.00135707 -0.00221154
554 2 2 21.7553 50.7129 28.9811 -0.00242075 0.0181866 0.0115726
1369 5 2 28.5329 31.6606 30.2372 -0.00196102 -0.0256171 0.00933044
2563 10 1 25.4599 47.5284 24.6248 0.00347859 0.00543728 0.000806759
2557 10 1 30.1129 42.9614 24.1046 0.00398659 0.00455427 0.00155892
2319 9 1 26.8593 40.1493 25.6731 6.78643e-05 0.00138486 0.00183722
1995 8 1 20.3846 42.5963 28.8348 -0.00946628 0.00328986 0.00228396
686 3 1 25.3237 42.3859 20.7299 -0.00544505 0.00375298 -0.00587342
1966 7 2 45.1691 52.2214 21.5519 0.031259 0.0156772 -0.0164117
1922 7 2 31.0366 36.8737 35.3478 0.000678322 -0.0114819 0.0234484
153 1 1 30.4988 40.4755 24.2875 -0.00150445 0.00470289 -0.00163649
991 4 1 35.4804 44.8289 22.4559 0.000866085 0.00079298 -0.00122622
742 3 3 31.7417 34.672 23.1544 -0.00182445 -0.00895261 -0.00339673
1266 5 4 29.2309 44.3238 28.7409 -0.00240363 -9.74351e-05 -0.00116782
1376 5 2 32.3388 30.1313 22.2113 -0.00347343 -0.0260899 -0.0156801
396 2 1 38.4075 45.6723 33.2607 0.000944307 0.00431205 0.00879634
2589 10 1 48.7575 47.5476 28.3426 0.0076573 0.00744673 0.000168923
1235 5 1 40.9947 39.8923 23.05 -0.00247986 -0.000463147 -0.00271059
2271 9 3 45.9277 41.3642 25.3173 0.00443054 -0.00191657 5.08561e-05
2428 9 1 45.2469 45.7984 22.3291 0.00534237 0.00244368 -0.0140736
1427 6 4 47.3462 40.0338 29.6147 -0.00258588 0.00442455 0.00428005
725 3 1 51.0075 39.5612 26.8038 -0.000383913 0.00100516 -0.000443138
1438 6 4 49.7147 41.7015 28.3704 0.00299554 -0.000250504 0.00286568
1308 5 1 48.1944 42.488 26.848 -0.0042107 -0.00274507 -2.32106e-05
1485 6 1 51.97 39.6505 23.8817 0.000758644 0.000525052 0.00227146
1980 8 4 56.7704 40.8765 25.1386 -0.00470212 0.000410917 0.00171411
1070 4 2 53.3008 41.8114 28.2073 0.0112315 0.0259445 0.000150743
2390 9 3 56.1851 38.9938 24.5238 -0.000857729 0.00212289 0.00385072
847 4 3 52.9501 45.8774 23.4542 -0.000724335 0.000349529 0.000136809
263 1 2 1.16152 35.18 27.7346 0.0142344 -0.0075815 -0.00087951
234 1 2 57.3732 40.9243 26.4219 0 0 0
1550 6 4 54.4463 38.916 23.0818 0.00123919 0.00240466 -0.00127162
1495 6 1 56.3429 39.3748 28.0437 0.00405839 -0.00211798 -0.00122661
1243 5 1 56.9545 43.3469 28.0986 0.00190871 -0.00316757 0.003645
1219 5 1 54.4588 44.007 26.0062 0.00214969 -0.000191524 -0.000119177
680 3 4 57.6963 39.8298 24.1044 0.00380123 0.000876955 -0.00271137
1628 6 1 0.0442967 51.6694 24.7745 0 0 0
1124 4 2 2.87036 45.0598 27.4099 0 0 0
1092 4 2 0.428314 51.0748 28.5847 0 0 0
1947 7 2 10.2946 53.7648 28.1072 -0.00245247 0.00609916 0.0110804
2539 10 3 12.4022 50.2153 25.1678 -0.000525369 0.00509586 0.00292436
1984 8 1 13.4483 53.5655 24.5272 0.000580258 0.00516751 0.00264683
2643 10 4 9.51695 42.3339 24.9082 -0.00364741 -0.00708363 0.00228884
2384 9 1 11.3599 51.611 29.3125 -0.000733622 0.00143479 0.0014227
1041 4 1 8.62498 45.4285 23.2461 -0.00361106 -0.011111 -0.00534523
968 4 1 9.7267 53.1344 27.9719 -0.00695906 0.00215109 -0.000210823
1887 7 1 10.5808 48.2322 21.9712 -0.00133685 -0.00816156 -0.00118335
2494 9 2 11.962 50.1987 21.4418 -0.00273761 0.00308274 -0.0115898
230 1 2 30.0681 46.8808 37.015 0.0189794 -0.00544081 0.0171556
412 2 1 16.9252 47.8152 24.1251 -0.00386416 0.00458063 -0.00360898
1979 8 1 16.9676 49.9762 27.0446 0.00111952 0.00398844 0.00316653
626 3 1 21.7562 54.2279 21.966 0.00499944 0.00635919 -0.00191059
2269 9 1 15.9029 51.9365 22.9548 -0.00157742 -2.86953e-05 -0.000271638
39 1 4 12.292 46.7587 26.2278 -0.00555401 -0.00384526 -0.00212944
1371 5 2 18.0484 44.5559 14.4231 -0.00492452 -0.011053 -0.016862
2316 9 4 27.1903 49.2614 29.2177 -0.000375339 0.00288329 0.00254034
1489 6 1 27.6059 49.5176 24.2695 -0.00179322 0.00203231 -0.00179491
2623 10 1 30.0836 47.4969 27.746 0.000966312 -0.00463821 0.0018578
1896 7 4 23.3856 44.9853 27.6401 0.000609918 -0.00800954 6.00126e-05
604 3 1 30.4415 52.3163 24.263 -0.0054221 0.00813766 -0.0020238
2188 8 3 33.7002 50.369 29.8491 0.00420584 0.0047066 0.00527543
1268 5 4 37.0747 47.0361 21.2803 -0.000644057 -0.000446586 -0.00267714
1090 4 2 45.7713 39.9096 15.6565 0.0246992 -0.0219025 -0.0201247
1640 6 2 47.8045 38.9513 23.2152 0.0149807 -0.0237527 -0.0103052
1 1 3 42.3434 50.6227 24.6796 0.00165449 0.00802894 -0.00577109
2376 9 1 52.6402 53.3622 22.3041 0.00352348 0.00287148 0.00137099
1721 7 1 47.4961 47.3016 23.365 -0.00333918 0.000692152 0.00106953
960 4 1 48.2983 46.3482 26.8297 0.000237253 0.00120664 -0.000750266
2279 9 1 51.3067 46.0846 27.1775 -0.000396958 -0.00215891 -0.00277895
1468 6 1 49.7733 47.9619 23.6185 -0.00202058 -0.000354272 -0.000712017
1708 7 4 52.6936 45.3359 22.8048 0.00461938 0.00250935 -0.00421648
1367 5 2 38.023 49.5136 25.2746 -0.0146979 0.00826686 -0.00894733
1112 4 2 50.3378 47.913 21.2466 -0.00411953 -0.0132473 0.000161903
33 1 1 53.9334 48.374 23.561 -0.00112371 0.00212513 -0.0049761
1105 4 2 53.5838 51.7361 20.4267 0.000393496 0.00880632 0.00786897
1936 7 2 55.3742 43.922 19.2903 -0.00495566 0.00927182 -0.0158013
1036 4 1 53.2924 49.0186 25.84 0.00245755 -0.000957994 0.00376357
1116 4 2 57.5007 45.8122 25.6558 0 0 0
1031 4 1 56.7883 46.2094 22.5489 0.00465895 0.000696972 -0.00343985
996 4 1 53.4909 48.912 25.2973 -0.000135771 -0.00424759 0.0015266
2444 9 1 56.2869 48.9046 23.7872 0.000679654 0.00208172 -0.00347254
1329 5 1 54.6739 47.7285 27.0209 -0.000127706 0.00730426 0.0015479
1400 5 2 58.5586 44.5734 21.0519 0.014053 -0.0166896 -0.00415882
2460 9 4 6.74192 51.7869 24.7425 -0.00917632 -0.000338889 0.00332231
2680 10 1 2.79772 53.5214 26.5687 0 0 0
1826 7 3 11.3257 50.1782 23.9548 -0.00179866 -0.00673736 -0.00255064
2371 9 1 13.6147 57.5653 29.4751 0.000542537 0.00196206 0.00195921
1409 5 2 13.478 3.13714 18.0438 0.00331837 0.0135229 -0.0215214
405 2 1 16.8679 58.4533 24.9248 -0.00347963 0.00698965 -0.00381564
2184 8 1 22.7277 49.3584 29.6938 0.00223355 -0.00711191 0.00517037
2093 8 1 18.8481 50.1823 29.5426 -0.000126376 -0.00623614 0.00418211
948 4 1 19.9749 1.94775 26.1543 0.00451882 0.00834622 -0.00274669
1757 7 1 24.0058 58.9876 18.8722 0.0074861 0.00626039 -0.00777401
1849 7 1 30.9225 51.7105 22.1834 0.0033311 -0.00780911 -0.00450772
865 4 1 23.3919 52.9112 24.3546 -0.00303001 3.78416e-05 -0.00147588
842 3 2 26.4338 56.8246 42.903 -0.0136863 -0.000922556 0.0319596
1535 6 3 34.7249 1.15326 29.1138 -0.00230463 0.00466585 0.0131234
2065 8 1 30.8242 53.8638 23.2451 0.000661239 -0.00520823 0.00122342
1247 5 1 34.594 54.536 28.9941 -0.003051 0.00157901 0.011342
1406 5 2 37.2709 40.4751 22.5791 0.00940078 -0.0273202 -0.00107037
2024 8 4 32.3783 53.968 23.0168 0.00449887 -0.0057158 -0.00148245
2692 10 1 39.1743 56.6943 29.8943 0.00523607 -0.00137134 0.00235386
2255 8 2 36.158 48.2708 26.1235 0.0044552 -0.020484 -0.0077755
99 1 1 29.5491 0.967868 26.8913 -0.00244419 0.00693537 -0.00484673
2196 8 2 39.0252 12.218 15.9323 0.00457744 0.0321414 -0.0219417
800 3 2 39.2162 1.39134 33.7387 -0.0103889 0.00452726 0.013927
1298 5 4 44.8964 53.1852 28.9036 0.00298849 0.00117165 0.000461315
2275 9 1 39.0254 55.486 25.063 0.00286029 0.00136361 -2.18033e-05
74 1 4 39.6695 55.4572 23.7575 -0.00481323 -0.00440767 0.000220983
1520 6 1 36.8819 58.7341 28.5786 -0.00264082 0.00359562 -0.000148085
47 1 1 41.3212 54.0014 24.9216 -0.000960764 -0.00299792 -0.00194849
1319 5 3 42.8515 0.0613831 24.2096 0.000183092 0.00146308 -0.000521273
2791 10 2 38.0001 53.4503 25.4411 -0.00689035 -0.00448647 -0.00528856
118 1 4 50.3547 56.3972 26.0182 -0.00477966 -0.00026682 0.00511158
2038 8 1 50.2519 53.7089 26.5337 -0.0064691 -0.000218895 0.000809138
873 4 1 52.1607 56.7478 26.1714 0.000698901 -0.00302996 -0.00436932
862 4 4 50.3367 55.1713 25.1255 0.00169895 0.000218265 -0.00174011
2131 8 1 51.7152 53.5683 27.1947 -0.000803081 -0.00672786 0.0005464
347 2 1 52.3367 55.134 26.2445 0.00129083 0.00315892 -0.00046836
2713 10 1 57.8737 58.9404 23.1204 0.00771661 0.00530874 0.00344269
1634 6 2 51.937 54.1762 26.6796 -0.0121497 0.00752975 -0.00611213
225 1 2 51.0971 59.3459 29.4728 -0.0188441 0.0120758 -0.00998849
1629 6 1 54.4702 53.8573 24.0727 0.0016546 -0.00253173 -0.0023833
2388 9 1 55.4376 52.3045 22.2214 -0.00535006 0.000313653 0.000457546
775 3 1 59.0716 56.189 23.2127 0 0 0
2309 9 1 59.8588 53.952 23.0224 0 0 0
2599 10 4 58.6706 58.2995 23.6288 0 0 0
2669 10 1 59.1555 55.7327 28.69 0 0 0
270 1 2 58.3941 53.2591 25.1186 0 0 0
1250 5 1 51.5151 54.1806 24.0316 0.00253462 -0.000261439 -0.00249266
1253 5 3 56.5107 58.8512 29.6099 -0.00194492 -0.0013954 0.00165246
1025 4 1 55.629 54.8251 30.5415 0.00609109 -0.00334014 -0.00174002
2034 8 4 1.36157 2.77695 33.3969 0 0 0
2452 9 1 2.19037 2.47218 37.0865 0 0 0
2491 9 2 15.1125 3.68836 17.6047 0.015405 -0.00800954 -0.0331124
2778 10 2 23.6348 53.9308 22.5252 0.0405236 -0.018347 -0.0346536
1410 5 2 1.32092 3.43532 37.6314 -0.00117529 -0.00656974 0.00238022
736 3 1 1.6994 2.16259 37.2613 0.00342644 0.00368357 0.0025766
357 2 1 16.4011 7.53094 36.3048 0.00889773 0.000203478 0.00112517
2283 9 1 27.5532 5.41257 39.8045 0.0111139 0.00533354 0.00728486
2668 10 1 15.7963 6.2672 35.3337 -0.000529137 -0.00134756 0.00480114
109 1 1 15.3019 5.56483 34.4739 -0.00447762 -0.00353763 -0.00394242
2172 8 1 28.6625 4.36014 34.2945 0.00345269 -0.00288957 0.00546111
1431 6 1 22.4213 6.07141 32.8341 -0.00307574 0.00511508 0.00357221
1449 6 4 22.2475 4.91943 33.3823 -0.00160271 0.00549689 0.00350386
190 1 1 28.121 6.30515 34.1629 0.0108049 0.00186496 -0.00027422
2067 8 1 27.2737 58.6342 35.0201 -8.26602e-05 -0.00443995 0.00377981
1983 8 1 27.5284 8.99456 35.1565 0.00336887 0.00771791 0.0045559
1224 5 4 21.1604 9.13616 30.7099 -0.00518993 0.00589543 -0.00214062
79 1 1 33.6046 11.1048 33.3166 0.00948293 0.00965437 -0.00169608
1132 5 1 33.0985 1.42975 34.3403 0.0086441 0.00103795 -0.000417734
743 3 1 27.5524 3.83793 33.4807 -0.00288513 -0.00322821 -0.00144186
182 1 4 33.892 58.5608 29.6613 0.000877598 -0.00385143 -0.00142035
458 2 1 30.4737 59.1396 33.5804 -0.00146306 -0.00478528 0.00107109
1763 7 1 37.2646 58.4041 32.9175 0.00280211 -0.00437339 -0.00273409
1313 5 1 36.4439 59.2615 37.6766 -0.000499216 -0.0103053 0.00207171
555 2 2 26.0073 9.92454 32.1334 -0.0186068 0.011051 0.000250597
1325 5 1 41.361 6.41934 30.9005 -0.0006954 0.00229207 0.000641504
754 3 1 41.0114 3.23379 35.407 -0.000195523 -0.00298664 -0.00208701
170 1 4 43.623 4.80572 30.2315 0.0027152 -0.00284426 1.74984e-05
1762 7 1 46.5955 4.58486 36.1822 0.00495451 -0.00347643 -0.00206616
141 1 1 46.3709 3.76255 34.569 0.00169219 -0.00312509 -0.0009634
37 1 3 47.132 3.13636 30.0516 0.00103841 -0.000378128 -0.00155728
202 1 1 48.3014 7.55847 37.0851 -0.00413236 0.000926645 0.00130717
1045 4 1 51.3953 0.876923 34.249 0.000732879 0.000289443 -0.00278772
306 2 3 45.313 4.36054 31.242 -0.000408394 -0.00217109 -0.0018812
1616 6 1 47.4542 9.60136 36.9646 -0.000637756 0.00660687 0.00427812
961 4 1 44.8983 4.97181 30.7784 -0.00866358 0.00354308 -0.00299811
970 4 1 50.5562 5.97437 37.117 0.00146144 0.00461567 0.00159579
169 1 3 1.2235 4.01698 29.8795 0.00681189 -7.70398e-05 -0.00193302
603 3 4 57.8537 1.49107 36.4541 0 0 0
600 3 1 59.1241 5.38449 36.2702 0 0 0
2580 10 1 55.3945 5.7183 30.4592 -0.000707989 0.000173639 0.00214057
1403 5 2 54.6171 5.7781 36.7979 -0.00374491 -0.00349099 0.00537941
1089 4 2 53.7622 5.58627 37.242 -0.00769416 0.0112648 0.00268326
2017 8 1 2.45864 9.86372 36.0648 0 0 0
1806 7 1 2.39455 10.7608 34.8533 0 0 0
1970 7 2 7.81462 6.15757 37.4923 -0.0223568 0.0143089 0.0105186
1155 5 1 19.6254 11.8762 35.7054 0.0120472 0.00604616 0.00554139
139 1 1 8.92893 13.2764 34.0445 -0.000798145 0.0106396 0.00726264
178 1 3 12.571 8.40896 30.3997 -0.00297581 -0.00172781 -0.00112306
1843 7 1 16.0861 9.08973 37.3759 0.00296181 -0.00834972 -0.000184574
2373 9 1 17.6546 8.49348 41.787 0.00383071 -0.0121352 0.0110999
2699 10 1 30.637 12.5746 32.9076 0.00438179 0.00196712 0.00305471
2234 8 2 15.159 57.3304 43.7596 -0.0202692 -0.0241518 0.0166857
307 2 1 32.4222 10.7134 34.3418 0.0127514 0.00114405 0.000554713
737 3 1 25.5067 12.9991 36.9913 -0.00303626 -0.00155799 6.14564e-05
1000 4 1 25.5461 12.0789 34.9881 -0.000412581 -0.00580883 0.00181703
490 2 1 24.8115 1.96187 33.4453 -0.0012451 -0.0144656 -0.00175313
2230 8 2 44.0337 16.0738 43.6293 0.0224376 0.0139249 0.019002
466 2 4 36.7508 11.8488 30.7581 0.000307155 -0.00190823 0.000348014
1152 5 3 36.2629 11.6055 35.2582 -0.000629428 0.0026799 -0.00113756
451 2 3 33.4777 12.26 35.9762 -0.00134626 -0.0026958 0.00174603
1589 6 1 30.5609 13.5772 37.1014 -0.00229062 -0.00263816 0.00347967
2213 8 2 29.3225 10.6788 39.4669 -0.0106025 -0.00607413 0.0068257
1964 7 2 33.8382 8.03558 35.1915 -0.00692231 -0.0136231 0.000765112
1667 6 2 29 12.2695 33.5409 -0.0116526 0.00453655 -0.00514014
2266 9 1 41.5232 10.2446 37.8879 0.00424605 0.00365352 0.00257877
2139 8 1 42.8568 11.0401 35.8078 0.00705135 0.000631629 0.00329736
1747 7 1 46.7682 7.61934 42.3017 0.00404604 -0.00427113 0.0107529
984 4 4 44.6377 14.8782 36.0818 0.00159695 0.00693344 0.00148317
435 2 1 38.7694 7.1835 31.8531 -0.00135273 -0.0043017 -0.000202786
2330 9 4 41.2244 10.1394 27.8145 0.00397369 -0.00472031 -0.00989871
201 1 1 48.806 14.155 33.0079 0.00407979 -0.000178003 -0.00316923
445 2 1 51.9126 9.10178 35.0014 0.00181579 -0.00335598 0.0007507
782 3 1 45.5211 8.33374 27.4562 -0.00213918 -0.00170025 -0.00547076
1272 5 1 50.404 4.32679 32.0332 0.00274119 -0.00850604 -0.000671358
1542 6 1 48.0381 9.4502 33.6071 0.000880426 -0.00518696 0.00179282
1150 5 1 45.9911 9.41393 37.1306 0.00086781 0.00204779 -0.000694279
2773 10 2 47.3091 14.305 25.641 -0.0114153 0.014267 -0.0153639
2166 8 4 55.9696 12.8351 31.642 0.00230365 -0.000595287 -0.000589698
2013 8 4 55.838 7.58649 35.2115 -0.00455291 -0.00297847 0.000201606
2242 8 2 54.0727 11.3499 34.0581 -0.00458699 -0.0112362 -0.00864598
1115 4 2 58.9565 10.5129 34.7749 0 0 0
60 1 4 55.4089 8.3581 35.2886 0.00231447 -0.000257417 0.00345766
590 3 1 51.5278 13.1124 33.9334 -0.0057618 -0.000449335 -0.00516308
623 3 3 54.8363 12.4716 33.4767 -0.00168013 0.00223827 7.89428e-05
1950 7 2 53.8233 10.9536 35.2624 -0.0101698 -0.0139708 -0.00161247
2567 10 1 2.65477 17.2251 31.094 0 0 0
1990 8 4 0.0344758 20.9812 33.3674 0 0 0
2564 10 1 1.35489 17.9627 32.922 0 0 0
2018 8 1 2.19085 19.9815 36.7156 0 0 0
183 1 1 2.7406 18.2822 32.0351 0 0 0
1740 7 1 2.51176 22.1491 35.3867 0 0 0
1775 7 4 2.63266 17.7339 34.1838 -0.0130183 0.00479883 4.58252e-05
624 3 4 4.02871 21.1407 35.0208 0.00093605 0.0021606 -0.000873819
321 2 4 4.89802 21.0274 31.7835 -0.0063775 0.000383967 -0.000857277
735 3 4 6.3691 17.5135 37.3546 -0.00119028 0.00159008 -0.00709084
1500 6 3 13.0758 18.5117 32.7578 0.00326717 0.000243929 -0.000663942
1765 7 1 6.30854 21.4904 33.3138 -7.79983e-05 0.0106147 0.00548856
2462 9 1 13.0506 11.8548 37.8693 -6.30783e-05 -0.00783083 0.00173706
1745 7 1 16.8287 17.7541 31.2297 0.0045272 -0.0045939 -0.00518329
1019 4 1 10.013 18.0585 38.5707 -0.00391919 -0.00516671 0.00394795
2233 8 2 11.9081 34.2426 31.0691 -0.00097278 0.0277715 -0.00951878
2107 8 1 18.5575 16.5842 33.7941 0.00058749 -0.00044495 0.00383021
1496 6 1 19.5714 20.7524 35.1603 0.00667088 0.0111725 0.00225691
2161 8 1 21.628 19.6862 36.3219 0.00244781 0.00102584 0.00521899
2000 8 1 21.8033 20.2896 35.7617 0.00320087 -0.00103488 0.00320615
734 3 4 16.652 15.1905 36.1548 -0.004761 -0.0012971 0.00046737
1259 5 1 17.3124 14.9802 33.3696 -0.00518072 -0.00671217 -0.000268676
1754 7 1 26.4402 18.782 32.9106 0.00840692 0.000327357 -0.00498918
2318 9 1 25.786 12.9947 33.5848 -0.000177208 -0.00415607 0.00316295
164 1 1 21.9627 21.4823 33.288 -0.00223986 0.00118646 0.000553795
1701 7 1 28.5429 14.4612 36.0497 -0.000362411 -0.00245957 0.00159974
2155 8 1 36.6744 15.4913 34.353 0.00557489 0.000551469 0.0045482
2609 10 1 35.0621 12.9266 31.5633 0.00272722 -0.0111169 0.00158487
739 3 1 30.884 15.9092 30.2802 -0.00195041 -0.000966762 -0.00155876
2413 9 1 36.7994 14.9172 37.5367 0.00308748 -0.00312336 0.00204374
1194 5 1 33.9839 12.5082 31.6987 2.57723e-05 -0.00620517 -0.00189306
1730 7 4 29.9228 17.3712 32.4407 -0.000495232 -0.00321555 -0.00169986
612 3 1 34.426 15.5721 36.7845 -0.0044414 5.56153e-05 0.0011325
1263 5 1 41.2095 19.4526 34.0365 0.000117907 0.00671111 -0.000130702
2219 8 2 26.8673 22.1348 36.2528 -0.0267131 0.00512661 0.00338511
2368 9 3 48.2863 16.4001 33.6269 0.00760665 -0.00636918 0.00321238
546 2 2 50.11 14.8031 24.1666 0.0135084 -0.00306858 -0.0135741
1914 7 2 43.8001 28.7287 37.4922 -0.0140303 0.0154843 0.0124687
121 1 1 47.3775 19.9218 32.2643 -0.00207163 0.00343797 -0.000122026
455 2 1 47.0703 19.5762 33.1415 -0.00360104 -0.000180341 -0.000109277
1491 6 3 49.4082 19.0044 33.3431 0.00232424 -0.00394932 8.61364e-06
2198 8 2 45.7049 22.7585 24.3533 -0.00597372 0.00680801 -0.0240796
692 3 1 54.925 16.096 30.6824 0.00314417 0.00224035 0.00313264
61 1 4 52.9693 16.5382 36.2407 -0.000858808 0.00174851 0.000257983
20 1 1 53.5744 15.3482 33.0663 -0.00113397 -0.00742864 0.00170837
2685 10 3 53.7715 19.3427 33.2001 -0.00474362 0.00196337 -0.00165233
750 3 1 58.7905 20.0062 30.8461 0 0 0
2573 10 1 53.5987 18.9532 31.7043 0.00124186 -0.00101528 -0.00215073
313 2 1 58.0347 20.8091 31.681 0 0 0
647 3 4 58.2865 18.8815 34.3686 0.00380315 0.00112866 0.000191292
1856 7 1 54.0656 19.4447 33.4959 -2.31302e-05 -0.000446604 -0.00429178
353 2 1 53.0616 16.1523 38.1172 -0.000180708 0.0035043 0.00163345
249 1 2 56.4831 21.3178 33.5706 -0.00559144 -0.00601717 -0.00746718
803 3 2 7.65942 25.7374 40.1529 0.00802388 -0.0389991 -0.00865114
1803 7 1 1.71544 22.9033 30.2018 0 0 0
629 3 1 2.96315 26.4085 36.339 0 0 0
773 3 1 2.36149 29.3017 34.3872 0 0 0
2466 9 1 7.12694 30.6065 35.1415 -0.00618889 0.000118817 -0.00622116
792 3 2 15.5894 31.2655 50.5408 0.0117275 0.00709592 0.0317736
1666 6 2 10.6033 20.3656 44.06 0.0105818 -0.00936359 0.0195044
268 1 2 4.94626 27.6645 34.5576 0.00682469 -0.0037148 3.3452e-05
2274 9 1 9.13714 27.858 31.4117 0.00398675 0.00471923 0.00618565
2529 9 2 22.7179 28.4231 17.653 0.0268177 -0.00026926 -0.0300771
43 1 1 9.61181 25.1258 30.7052 -0.00677184 0.00375496 -0.000797561
620 3 1 13.4809 26.46 32.7537 0.0025856 0.00228477 -0.00194477
1839 7 3 11.1777 26.9584 37.6486 0.000981468 -0.00167687 0.00358499
980 4 3 11.1759 27.2487 33.0557 -0.00513441 -0.00305086 0.000940742
2011 8 3 20.2229 25.7898 39.9737 0.00289798 0.000243963 0.0148857
2323 9 1 24.7367 25.5995 38.5803 0.00657332 -0.00278624 0.00951079
289 2 1 14.6983 24.0194 30.1666 -0.00479574 0.00193368 -0.00316028
2536 9 2 20.5116 37.4338 26.0718 0.000542314 0.020498 -0.0109226
2590 10 4 16.1494 29.5057 35.2264 0.00152907 0.00374353 0.00177789
186 1 1 16.829 26.1068 33.5085 -0.0017912 0.00200296 -0.00111951
447 2 1 15.045 21.9642 34.3199 -0.005336 -0.00108896 0.00137838
1916 7 2 7.97829 19.03 31.4787 -0.00130164 -0.00390566 0.0199677
1085 4 2 27.5876 35.0088 30.5847 0.0219139 0.0124132 -0.0103159
2760 10 2 44.2601 21.4562 45.2034 0.034744 -0.0033696 0.0188125
1482 6 4 28.8192 30.3805 35.7361 -0.000550356 0.0103727 0.000933027
1829 7 1 23.9706 24.8914 30.2399 0.000836113 0.000150483 -0.00172921
1752 7 4 27.947 26.2819 31.3855 0.000211196 -8.84222e-05 -0.0035397
639 3 1 24.9856 23.0261 31.2232 -0.00673748 -0.00099418 -0.00101077
1467 6 1 42.3171 29.4696 40.2344 0.0137039 -0.000285628 0.00767514
1873 7 1 33.501 22.1978 30.3746 0.0039332 -0.00157565 -0.000674888
2149 8 1 35.9515 29.2988 34.7904 0.0055273 0.00402096 0.00414329
2427 9 4 32.6264 27.1895 31.3026 0.00225688 -0.0013853 -0.000194478
31 1 1 33.4671 31.4221 33.9047 -0.00146978 0.00543021 -0.00145987
928 4 4 31.0657 25.2532 30.3704 -0.000711652 -0.00201716 -0.00142753
371 2 1 34.3628 21.64 32.2752 -0.00118004 -0.0023546 -0.00324596
769 3 4 34.5584 30.7309 30.9134 -0.00198113 0.00284778 -0.00430812
1474 6 1 36.4035 28.4698 33.3053 0.00117849 -0.00140325 0.00120966
1294 5 1 36.1615 26.0921 37.6548 0.00133771 -0.00462739 0.00164896
539 2 2 39.1283 13.9945 32.7922 0.0167589 -0.0259682 -0.00935198
1302 5 1 45.5946 30.5956 35.2594 0.00273672 0.00789232 0.00179049
1203 5 1 44.4945 22.4705 31.923 0.0012669 -0.0034613 -0.002119
594 3 4 43.6634 26.0484 34.8691 -0.00195413 0.00297868 -0.00122757
521 2 2 49.5392 33.8717 40.9019 -0.000176154 0.0121197 0.0120784
2423 9 1 49.122 29.5029 32.6069 0.005957 -0.000394023 0.000198987
1067 4 1 46.8298 30.9915 35.127 -0.000855437 0.00830589 0.000783602
1811 7 1 52.4188 26.7416 33.3774 -0.000515565 0.00144704 -0.00647696
177 1 1 43.1246 21.7735 31.1839 -0.00589572 -0.00268174 -0.00424977
356 2 4 46.7152 24.7213 36.3059 -0.00542323 0.00116434 -0.000813848
454 2 1 44.3652 26.9913 36.9665 -0.00440861 0.000276482 0.00388463
2793 10 2 43.3528 29.497 33.0804 -0.0111181 0.013063 0.000800604
1499 6 1 52.8018 30.0363 34.7989 -0.00196917 0.00388662 0.00305277
282 1 2 1.10517 28.3784 32.9221 0.0198962 0.00170337 0.00417231
532 2 2 59.3336 36.0122 36.9173 0.0117918 0.0254421 0.00543501
701 3 1 55.1545 25.0934 34.6177 0.00125186 0.0054331 -0.00330443
2176 8 1 54.6419 24.2724 32.8209 -0.00294982 -0.0014494 0.000159701
1720 7 4 55.6695 25.601 34.5065 -0.000729795 -0.00265045 -0.00166147
1493 6 4 55.2604 29.0083 38.3792 4.16765e-05 0.00561471 0.006435
255 1 2 5.92249 19.8264 27.0978 0.0110295 -0.00889209 0.0189802
2044 8 1 1.19861 34.276 34.5535 -0.00308657 0.0070626 0.00702405
1362 5 2 2.76874 35.9095 31.706 0 0 0
659 3 1 1.05873 36.2423 33.7183 0 0 0
628 3 1 0.310743 35.7845 32.4359 0 0 0
343 2 4 1.91738 35.2796 35.7854 0 0 0
545 2 2 1.41483 33.4484 32.4153 0 0 0
1875 7 1 4.25369 34.8413 37.5619 0.00428974 0.0058362 -0.00141538
361 2 1 7.5784 32.3649 30.5908 0.0116515 0.00339633 0.0010484
1005 4 1 9.88922 37.2948 34.361 0.000723242 0.00738914 0.00554931
1807 7 1 12.0178 33.0299 36.5943 -0.00185125 0.00315099 0.00143045
1890 7 1 11.7049 37.3072 33.7433 0.00135218 0.0042915 -0.00158453
2443 9 1 13.4718 35.7255 32.2233 0.00286939 -0.000132946 -0.00054083
472 2 1 8.67193 31.3984 32.6085 -0.00221406 -0.00575809 0.00520147
1842 7 1 9.14413 37.6018 36.065 -0.00178717 0.00201795 -0.0014788
2753 10 4 21.5623 31.2936 29.5918 0.00163885 0.00168412 -0.00658145
1540 6 1 16.1016 35.7296 31.8215 -0.00575548 -5.4087e-05 0.00147149
1813 7 1 16.1704 35.2445 34.7127 -0.000946711 0.00315309 0.000889344
1555 6 1 24.2076 31.3176 26.8882 0.00912588 -0.00236201 -0.010361
700 3 1 16.1075 34.9317 30.098 -0.0069487 0.00265674 -0.00234041
95 1 1 18.2729 34.5154 33.107 -0.00508503 0.00188788 -0.0032958
1286 5 1 20.4538 36.1211 32.4932 -0.00184724 -0.00232979 -4.83667e-05
2727 10 1 29.1194 33.3808 34.0282 0.00352789 0.00448737 0.00527165
1503 6 1 27.0362 35.6456 36.2351 -0.00356696 -0.00123807 0.000369416
2029 8 1 18.4757 32.7016 31.2818 -0.0107447 -0.00923908 0.00029116
407 2 3 24.453 32.5186 36.7984 -0.0022306 0.00184933 -0.00142291
774 3 1 34.9462 33.0244 27.8614 0.00941344 0.00325688 -0.00547172
2308 9 4 35.5619 33.7974 31.966 0.000831784 -0.000582326 0.0017644
1733 7 1 32.8355 36.9123 32.9196 0.000691108 0.000429468 -0.00213527
519 2 2 45.0945 35.5162 42.431 0.0105883 0.000702245 0.024625
160 1 4 43.5238 31.7188 35.9125 0.00159415 0.00243397 0.0011665
2412 9 3 39.4695 35.3652 37.0619 0.00345549 0.000790044 0.00207457
1277 5 4 38.5263 31.9097 31.9078 0.000767059 -0.00323086 -0.000699031
606 3 1 36.4574 38.6647 33.9184 -0.00441832 0.00521034 -0.000108716
469 2 1 43.9855 36.2888 31.7414 0.00185031 0.00299896 -0.000466929
1221 5 1 41.0137 34.2644 36.7573 -0.00151746 -0.000709511 -0.000435349
414 2 1 38.9652 30.4874 37.4733 -0.00718396 -0.00440501 0.00438661
1021 4 1 44.9821 36.1642 35.665 0.00280201 -0.00158315 0.00340881
1149 5 1 45.8871 36.8213 36.1897 0.00096182 0.00794525 -0.000664058
2057 8 4 49.8486 35.9511 32.4748 0.00546311 0.00393162 0.00230617
1789 7 1 49.2905 28.033 31.1015 0.0054731 -0.0085708 -0.0011811
1126 4 2 45.9826 40.1653 37.6534 -0.00259682 0.00959998 0.0075088
1781 7 1 51.577 34.2705 29.8962 0.00271243 0.00261153 0.00630271
391 2 1 50.0797 36.7512 27.7928 0.00342534 0.00212864 -0.00473664
675 3 1 46.6471 27.8278 32.9934 -0.00417533 -0.00560781 -0.00416458
1515 6 4 50.0912 31.1183 30.865 0.000573239 -0.00263794 2.67985e-05
93 1 1 47.723 32.1302 30.487 0.000904202 0.00116183 -0.0037484
2347 9 1 46.4654 32.3526 37.6071 -0.0038763 -0.00169175 0.00413108
990 4 1 47.575 34.5364 31.8403 -0.00210051 -0.00213222 -0.00499434
1823 7 1 51.148 35.1831 36.2763 -0.0024035 -0.000401185 0.00199148
58 1 1 49.2337 31.6068 29.9207 0.000882148 -0.00849224 -0.0126829
992 4 1 59.3442 35.228 33.6332 0.00362706 -0.00198228 -0.00194573
1418 6 4 53.2919 32.2147 32.7696 -0.00302949 -0.000709046 -0.0030571
318 2 1 58.0825 31.3117 33.9617 0.00220831 -0.00258965 -0.00581187
1918 7 2 58.9308 33.6907 33.2768 0 0 0
1678 6 2 2.47248 33.6684 37.5761 0.0117186 0.000694014 0.00491487
1864 7 1 0.899078 41.8298 36.3928 0 0 0
661 3 1 1.98329 43.8388 37.4809 0 0 0
2449 9 4 7.20479 42.5134 33.132 0.00855727 -0.00856064 0.000438838
1841 7 4 12.5427 41.5386 29.3035 0.00339478 0.00464506 -0.00577194
293 2 1 8.27277 42.4749 29.7484 0.00223984 -0.00283673 -0.0035785
2471 9 4 14.7479 37.4293 32.3396 0.000437577 -0.00358214 0.00064291
1287 5 1 12.7663 47.1444 34.9994 0.00617715 0.00597866 -0.00155981
431 2 4 11.3448 43.335 30.6539 0.00556666 0.00375641 -0.00453225
874 4 4 8.79764 42.5953 37.082 0.00308036 0.00285799 0.0118798
1650 6 2 12.7311 48.4322 31.9281 0.00824809 0.0124009 -0.00112771
1669 6 2 24.246 44.9316 46.859 0.00921079 0.00138096 0.0258724
985 4 1 22.728 40.2286 37.015 0.00687876 -0.00416877 0.00782247
203 1 1 16.7823 42.9633 28.5565 -0.00228774 0.00567187 -0.00431771
745 3 1 17.8626 40.8092 34.5902 -0.00484348 0.00423585 -0.00148415
1432 6 1 17.7423 43.8362 35.6645 0.00399274 0.0011485 -0.000358686
2335 9 1 17.866 39.6515 34.506 -0.000217197 0.000563509 0.00444601
1965 7 2 13.9293 43.3546 30.7839 -0.0126519 0.00264772 0.000561774
130 1 1 18.0472 39.5572 28.9376 -0.00331396 -0.00801817 -0.00330087
129 1 1 28.2085 42.3904 30.2636 -0.0013871 0.00501207 -0.00312469
2299 9 1 21.7627 44.9167 37.7702 -0.00229666 0.00118394 0.00290304
956 4 1 26.9486 45.2485 37.5906 -0.00398727 0.00167331 0.00148553
2249 8 2 38.6822 51.506 46.9038 0.00607904 0.0182746 0.0200594
329 2 1 29.3652 39.7962 34.8189 -0.00510456 0.00303245 -0.000705817
1858 7 1 35.9885 40.615 35.5703 0.00449551 0.00140801 -0.00127093
1818 7 4 35.8564 45.0007 32.8273 0.00336928 0.00486574 0.000373468
1377 5 2 23.6183 41.1441 31.0252 -0.0218144 -0.000675618 -0.00423069
1683 6 2 47.9956 42.8183 13.3975 0.0122635 0.00227506 -0.0483579
2535 9 2 45.4748 37.9896 49.0621 0.00574235 -0.00360087 0.0288638
171 1 4 42.2364 41.9143 36.9788 0.00233668 0.00543185 0.00106895
1280 5 1 40.7821 37.8323 30.5641 0.00153902 -0.00140453 -0.000645574
1504 6 4 39.1768 42.0764 37.6137 -0.000952249 0.000413276 0.000418542
1244 5 4 39.6413 44.0353 36.1798 -0.00245994 -9.45455e-05 0.000830762
56 1 1 42.1467 38.4701 37.8422 -0.000597464 -0.00685118 0.000900846
1912 7 1 42.11 39.4727 36.5088 0.0025884 -0.00829026 0.00241077
1770 7 1 50.0163 37.7034 37.9703 0.00562805 -0.00818513 0.0106201
1425 6 3 46.9864 41.2888 32.4199 -0.00181677 -0.00277607 0.00229042
1479 6 1 49.7138 35.965 33.8124 -0.00264214 -0.00433855 -0.00548376
705 3 1 49.8598 40.8541 35.5581 -0.00376638 -0.000198909 0.00199638
1051 4 4 50.7611 42.5139 36.1911 0.00111341 -0.00144941 0.00306762
870 4 3 50.8506 40.2578 32.3199 -0.00358323 -0.0064467 -0.0041958
2345 9 1 52.1081 37.3958 27.5112 0.00382029 -0.00564005 -0.00191634
370 2 1 50.6613 40.5269 36.8833 -0.00279109 0.00139416 -0.00195152
2681 10 1 50.8708 40.9149 34.6674 -0.00549261 0.00264965 0.00036527
660 3 4 53.986 38.9913 35.6458 0.000944492 -0.000988242 0.00678069
1392 5 2 57.6728 43.5526 31.6576 0 0 0
1865 7 1 59.4743 39.6298 35.2632 0 0 0
1882 7 1 59.775 42.2264 33.3476 0 0 0
77 1 1 53.3814 40.4157 35.0904 -0.00032995 0.005712 0.00588526
1265 5 1 55.8174 41.1625 30.8947 -0.000897983 5.60594e-05 0.00458264
1248 5 1 57.4384 41.7812 34.7491 0 0 0
2205 8 2 57.2404 40.6157 36.8785 0 0 0
417 2 1 55.397 42.8887 35.4768 -0.00329522 0.000731469 0.000578371
1249 5 1 53.3898 41.7701 36.9485 -0.00106623 0.000946432 0.00220655
516 2 2 10.0042 52.7569 37.4482 0.0235324 0.0367204 0.00631481
1654 6 2 54.8351 52.2703 34.6168 -0.00997606 0.00143611 0.0111339
1652 6 2 12.6295 52.6598 45.9721 0.00565396 0.000967347 0.0221087
2498 9 2 9.28561 55.7224 42.1183 0.0147219 0.0123827 -0.00297917
2448 9 4 10.2731 49.918 32.2597 0.000947634 0.00173127 -0.000774615
585 3 1 13.9083 47.3515 30.8652 0.00422681 0.00106992 -0.00584491
909 4 1 6.78163 52.5532 30.8977 -0.00255139 0.0028981 -0.00455566
1885 7 4 22.3705 50.4058 35.9444 0.0015459 0.00398717 0.00143728
1257 5 1 25.7879 47.8828 31.8951 0.00712816 0.00184776 -0.000844232
916 4 1 13.8541 53.8206 34.0863 -0.00321259 0.00319351 9.6693e-06
509 2 2 8.95755 48.8698 37.0702 -0.0154384 0.00416245 0.00788495
1685 6 2 30.3351 57.7294 35.8515 0.0153294 0.0145877 0.00830439
1904 7 1 22.9484 54.2325 31.6478 5.72883e-05 0.0058979 0.00204797
1452 6 1 28.3476 46.5136 35.5213 -2.48532e-06 0.00127572 0.00348207
2317 9 4 27.4232 51.7776 34.5791 -1.91502e-05 0.00366092 0.00280121
976 4 1 24.2467 48.3869 36.9306 -0.00322506 0.00134299 0.00191693
2592 10 1 25.6429 47.6338 33.4858 0.00293378 -0.00430885 0.00132835
2216 8 2 32.2205 25.8238 27.1452 0.0192451 -0.0390317 -0.0207287
1573 6 1 33.705 53.5173 34.9099 -0.000173404 0.00592505 0.00235619
1027 4 1 29.8489 46.2616 35.8807 -0.00101342 0.000135719 0.00325114
2146 8 1 28.6349 48.1171 27.7858 -0.00763322 -0.00409718 -0.00962005
1093 4 2 28.8884 53.2816 27.8196 -0.00292831 0.0162451 -0.0130791
2207 8 2 43.1598 35.2863 25.9645 0.0204479 -0.0231883 -0.0195795
677 3 1 40.0416 53.0933 40.2203 -0.00248929 0.00524686 0.00953566
2600 10 1 43.7056 45.8995 33.0407 0.00560952 -0.00438849 0.00136734
1726 7 1 41.8399 52.8204 33.9962 0.00246419 0.00372769 -0.00104417
1264 5 1 44.8266 50.0156 30.2989 0.000930118 0.00039993 -0.000894029
1138 5 1 40.6107 50.9669 29.5316 -0.00135766 -0.00115403 -0.00143287
2602 10 1 40.2008 44.506 29.2464 0.00489656 -0.0046934 -0.0111127
1285 5 1 51.8046 48.0315 30.5397 -0.0038421 0.000931894 0.00620422
888 4 1 51.2744 50.1565 34.2695 -0.00117057 -0.000342986 0.00455484
266 1 2 50.1521 53.8786 30.3552 -0.00847782 0.00771315 -0.0112835
333 2 1 53.646 46.0863 31.4954 -0.00201708 0.00124431 -0.00181195
2465 9 1 58.6091 52.4006 35.3635 0 0 0
1315 5 1 57.5902 46.5356 34.8739 0 0 0
1405 5 2 59.5893 49.0643 35.8723 0 0 0
1096 4 2 55.8691 53.8432 40.2568 -0.0135844 0.00812813 -0.00872632
1338 5 1 0.110893 59.5085 36.0043 0 0 0
2241 8 2 8.16056 57.744 32.8868 0.0146451 -0.0020164 -0.0183451
1191 5 1 10.673 54.3393 33.4408 -0.0042976 0.00225107 -0.00198063
1774 7 4 15.5805 51.7086 30.4242 0.00438398 -0.00579151 -0.00228833
911 4 1 9.56307 58.3234 32.0808 0.000674892 0.000183304 0.000207612
1718 7 1 11.139 2.14396 34.962 -0.00352999 0.00580139 -0.000156803
1199 5 1 9.35947 0.39067 33.0366 -0.00552551 0.00401493 -0.00178648
2076 8 1 21.7889 57.8966 31.4547 0.00882874 -0.00197457 0.00235961
89 1 1 15.6587 56.1264 29.3203 -0.00577066 0.00619647 -0.00335433
2267 9 1 17.8819 56.8409 31.9009 -0.000928211 0.000845789 0.00153798
931 4 1 15.1664 1.38719 34.5602 -0.00441992 0.00527584 5.02317e-05
262 1 2 31.8542 13.2401 16.7344 0.0193573 0.0270036 -0.0413662
304 2 1 25.5329 58.4778 33.4599 -0.00408261 -0.00304985 -0.00171142
1620 6 1 29.2822 54.3545 39.39 0.00749044 0.0031533 0.00484
2746 10 1 23.6329 53.1099 36.813 0.00214839 -0.00539842 0.0066304
614 3 4 27.2807 55.0155 36.1423 0.00545534 -0.00407131 0.000944457
2605 10 1 25.1967 57.1383 35.4155 0.00141534 -0.00209333 0.0021141
946 4 1 24.7785 49.2723 30.3473 -0.00400211 -0.00910093 -0.000903335
1709 7 4 23.7087 0.611526 33.7619 -0.000617869 0.00630671 0.000725788
2282 9 1 24.9823 54.9234 38.5329 -0.000672132 0.00173509 0.00248459
1028 4 4 25.3461 56.3394 37.5881 -0.00156598 0.00239807 0.00340343
1035 4 1 23.466 57.9366 37.3139 -0.00297921 0.00236052 0.00329218
44 1 1 26.1152 55.1283 32.6277 -0.00372755 -0.00239914 -0.000793263
296 2 1 28.3672 56.0804 33.8083 -0.00258816 -0.00370993 -0.00190914
2162 8 1 21.9716 52.5673 33.0592 -0.00926828 -0.00434194 -0.00726676
2395 9 1 37.8428 55.0194 33.2518 0.00373337 -0.00889792 0.00208217
1239 5 1 37.6403 1.79224 32.2662 0.00900066 0.00364345 -0.000493158
1326 5 1 29.9916 53.3854 34.2053 -0.00310908 0.000147673 0.00127546
540 2 2 38.7995 58.6136 37.437 0.000361693 0.00644472 0.0113246
2251 8 2 41.9098 1.08286 39.6457 0.00568857 0.00737997 0.00660935
78 1 1 40.4304 51.5918 35.0838 -0.000855319 -0.00621365 -0.00101424
481 2 1 39.0051 50.4354 32.5299 0.00127862 -0.00542972 -0.00125883
762 3 1 44.3916 59.1643 36.0643 0.0118673 0.00797267 -0.00268675
1303 5 1 52.7124 58.5457 31.374 -0.00397246 0.00612773 -0.000308328
2265 9 1 51.4845 56.59 31.2101 0.00106422 -0.00770345 0.00398
439 2 1 45.1537 0.359003 36.5562 0.00028374 0.006174 0.00137584
167 1 1 50.3863 55.3195 32.8486 0.00397586 -0.00450891 0.000509327
155 1 1 48.1947 4.42171 35.4441 0.00222855 0.00931154 0.000689626
1588 6 3 49.1102 2.46194 39.0951 0.00146684 0.00736839 0.00401482
80 1 1 49.9653 1.14798 34.9547 -0.0013781 0.00603635 0.00192157
1004 4 1 48.5337 56.2353 33.6996 -0.00506931 -0.00086675 0.0037162
1307 5 1 44.3774 56.6054 39.2602 -0.00426921 -0.000359588 0.00567906
2302 9 3 50.5962 1.66712 35.7886 -0.00207601 0.00402957 0.000489791
1212 5 1 51.096 58.5618 30.7357 0.00271152 0.00561444 -0.00334423
975 4 1 52.3517 58.5134 32.6689 0.00566473 0.00112587 -0.000147026
689 3 3 46.8714 49.7789 35.159 -0.000885916 -0.00667162 -0.002625
1299 5 4 50.1236 55.5801 30.9613 -0.00232889 -0.00190833 -0.00337758
2122 8 4 59.0294 52.4708 35.2419 0.00391858 -0.000395515 -0.00137542
2499 9 2 52.9054 53.5317 36.3866 -0.00243799 -0.0215743 0.00570656
1153 5 1 54.8136 57.0922 33.4635 -0.000378379 0.00157317 0.00292038
1644 6 2 57.1409 56.2734 35.4085 0 0 0
1255 5 4 56.6487 55.9426 33.9013 0.00038425 -0.000120033 0.00521041
1347 5 1 51.284 57.1836 34.2412 -0.00315963 0.00088988 0.00560298
2456 9 3 8.153 0.776947 40.1106 -0.00273872 -0.0076114 -0.00488067
1548 6 4 16.8122 3.99987 44.0931 0.0110762 -0.00292437 0.0022794
2659 10 1 14.1825 6.20818 48.1693 -0.0012153 -0.00197696 0.00782965
507 2 2 8.81715 45.2304 37.1695 -0.0194707 -0.0267801 -0.0066215
1949 7 2 7.74312 6.31155 37.6302 -0.00465129 0.00727409 -0.0117134
300 2 1 27.3922 59.9894 38.5422 0.0144725 -0.000549065 0.00170113
1386 5 2 27.6888 28.5154 48.2408 0.0123569 0.0447078 0.0113179
1456 6 3 20.0219 10.3781 44.8738 -0.00130142 0.00649623 0.00488096
802 3 2 23.2821 13.636 35.9091 0.00560342 0.0223788 -0.0114038
1171 5 1 29.1434 1.87648 43.6095 -0.000340519 0.0015527 0.0118545
2507 9 2 32.8504 19.038 53.3077 0.0141562 0.0273912 0.0209081
1656 6 2 24.8599 10.2161 49.1226 -0.00310001 0.0176996 0.0146715
2587 10 1 25.8535 6.3142 44.026 0.0029247 -0.000946161 0.00312541
1876 7 4 26.2724 4.48247 44.218 0.00287488 -0.00568231 0.0021656
349 2 1 26.9497 3.85594 40.841 -0.00437065 -0.00561701 0.00017741
2445 9 1 33.1851 6.15057 39.7682 0.0101595 0.00931495 -0.00112706
2362 9 1 25.9519 2.26707 41.5471 0.00324698 -0.00885439 -0.00644198
1181 5 1 37.1352 5.9293 39.3635 0.00121603 0.00355666 -0.00123211
1317 5 1 35.6995 7.94432 40.2611 -0.00111229 0.00323766 -0.00943838
162 1 4 43.3718 0.122493 39.2157 -0.0033012 -0.00196379 0.00295271
2795 10 2 49.8154 4.23794 49.6064 0.0238864 0.00588396 0.0154729
710 3 1 37.868 9.90937 41.0992 -0.0024964 0.00965647 0.000855848
1736 7 1 41.8364 10.3634 37.6044 0.00233767 0.00762308 -0.00138652
939 4 1 38.8264 8.08553 41.9454 -0.00074513 0.00698111 0.00142748
1251 5 1 39.8517 3.11558 41.151 -0.00539214 -0.00129555 -0.00228952
310 2 4 42.3884 6.66579 39.2204 -0.00128691 -0.00163324 -0.000635723
1081 4 2 34.5823 12.506 36.0958 -0.0157321 0.0189818 -0.00574878
2336 9 1 40.9003 7.68707 40.5223 0.00463686 0.00628241 -0.00668935
2203 8 2 52.508 7.77996 37.873 0.00278099 0.00336254 0.0156322
1413 6 1 49.9469 58.9843 41.4575 -0.00213858 -0.00425758 0.000561216
16 1 4 48.0701 6.43328 37.9065 -0.00419155 0.00112868 -0.00145979
875 4 1 44.9066 7.60482 40.4323 -0.00419739 0.0036745 -0.000416504
595 3 1 52.879 5.27121 44.7508 -0.0065888 0.00277035 0.000453162
581 3 4 59.3124 4.25335 42.6048 0 0 0
1404 5 2 49.8226 4.33166 40.8536 -0.0177308 0.0125512 -0.00498111
1648 6 2 1.02459 10.0668 41.493 0 0 0
2437 9 1 5.49067 13.5703 40.8907 -0.00151833 0.0081415 0.00250563
2467 9 1 7.79166 6.96988 39.5511 -0.00093785 -0.0027105 0.00114968
2248 8 2 57.1834 14.4292 30.7818 -0.0280063 -0.00965914 -0.0302356
1819 7 4 6.8903 14.1309 42.6273 -0.00222262 -0.00340421 -0.00679995
706 3 1 16.1628 10.5776 38.6483 0.0112645 0.0013377 0.00168073
1994 8 1 13.536 14.0173 48.1032 0.0013018 0.00909407 0.00638764
1796 7 4 9.54835 11.519 40.3935 0.00290391 0.00743719 -0.00315289
2208 8 2 24.9065 0.699538 37.1604 0.0204771 -0.0205765 -0.00662403
1692 6 2 29.582 6.12616 58.7163 0.0268551 -0.00916408 0.0300288
2509 9 2 21.9952 12.1683 40.6929 0.00235525 0.00514286 0.00388078
1724 7 1 20.3016 15.5381 43.6019 -0.00168088 0.00829102 0.00110477
1318 5 1 16.9151 12.9101 47.0492 -0.00483078 0.00393042 0.00423045
2538 9 2 27.1968 14.2846 59.46 0.00225776 0.00359431 0.0319204
369 2 1 25.5589 5.27936 42.6815 -0.00290762 -0.00548653 -0.000924903
2794 10 2 42.084 14.6538 42.5983 0.0197301 0.00227891 0.00324074
2621 10 4 35.5289 12.6113 44.7286 0.00239178 0.000866859 0.00513232
2231 8 2 26.628 12.4125 46.4109 -0.00956201 -0.0016331 0.00627159
1833 7 1 34.136 9.86434 45.4798 0.002971 -0.00282753 0.00105776
111 1 1 29.7271 7.24033 39.1565 -0.00139078 -0.00322313 -0.00281069
1393 5 2 23.4613 14.505 47.5305 -0.0150258 0.00387454 0.00654407
246 1 2 26.0364 10.0079 36.7748 -0.0132697 -0.00473904 -0.00459123
1073 4 2 29.7634 22.698 25.3564 -0.00133832 0.0180908 -0.0252989
753 3 1 43.9446 7.6622 41.3533 0.0120497 -0.00234916 -0.000795735
1340 5 1 43.0347 10.6142 39.6955 -0.00187685 0.00278023 0.00197311
876 4 4 39.1584 17.0038 40.9666 0.000955489 0.00463275 0.00195972
493 2 1 45.7194 14.4282 42.9689 0.00277908 -9.57556e-05 -0.000533428
24 1 3 40.5131 11.7498 40.1343 0.000523229 0.00127116 -0.000580338
137 1 1 42.6709 11.7978 40.0323 0.00107478 -0.00138424 -8.59476e-05
733 3 3 39.4138 12.6755 41.8611 -0.000336031 -0.00138009 0.00145922
801 3 2 41.5147 18.0539 42.385 -0.004927 0.00716655 0.00308757
550 2 2 33.4622 1.52614 35.8873 -0.0150004 -0.0146012 -0.00469803
1938 7 2 33.3022 20.2506 41.1318 -0.0157891 0.0238461 0.000573257
682 3 4 36.7515 8.16889 43.903 -0.0037799 -0.00351402 -0.0016534
1610 6 3 48.6464 11.5456 40.5372 -0.000126726 -0.00469649 0.00480963
1333 5 4 49.0552 14.9607 40.7422 0.000281046 0.00377314 0.00274063
889 4 1 47.6704 9.83434 36.969 -0.00564479 0.000543411 -0.00222012
64 1 1 48.4195 9.60145 44.0287 0.000782109 -0.00138191 0.00178434
96 1 4 47.8662 9.22995 37.0142 0.000596232 -0.00284381 -0.00227555
1719 7 1 42.8152 13.712 44.474 -0.00516636 4.4835e-05 -0.00030276
1339 5 1 49.4072 8.14805 41.3087 -0.000571765 -0.00940839 0.00198914
1227 5 1 49.3142 11.1035 39.0817 -0.00025655 -0.0055065 0.000227933
2513 9 2 57.0563 7.81368 43.9757 -0.00565812 0.000244907 0.0116739
748 3 4 52.9616 8.99866 42.1389 -0.00289685 -0.00294679 -0.00867682
892 4 3 59.1608 10.6337 44.33 0 0 0
147 1 3 54.1834 14.1046 39.7986 -0.00212054 0.00259064 -0.000856618
327 2 1 57.2482 13.0119 42.8793 0 0 0
577 3 1 57.1791 10.0481 43.0406 0 0 0
1402 5 2 57.0913 13.1731 41.0622 0 0 0
643 3 1 2.0668 16.1972 44.5643 0 0 0
1937 7 2 1.77328 21.4698 38.138 0 0 0
621 3 1 0.192656 20.0999 44.1103 0 0 0
758 3 1 1.89294 16.9795 42.4329 0 0 0
2125 8 1 9.69701 15.6001 39.2173 0.00397656 0.00142861 -0.0052825
932 4 1 14.8953 15.3698 42.7906 0.00344875 -0.0020192 0.00563971
2679 10 1 21.7501 20.0365 42.1952 0.000968812 0.0022515 0.00512703
133 1 1 22.405 16.2859 40.6196 0.00663892 -0.000921726 -0.00350602
460 2 3 19.1835 17.9949 46.5491 -0.00341829 -0.00101863 0.00327321
2512 9 2 12.7445 31.3819 37.6448 -0.0121351 0.0216772 -0.00886464
2108 8 3 20.1181 20.1462 39.3728 0.000966422 0.000403038 -0.00730045
797 3 2 29.9587 28.7158 54.8383 0.00671934 0.015274 0.0287129
852 4 4 27.7371 13.0372 37.9734 -0.00391158 -0.00781596 0.000922879
1395 5 2 25.0841 8.58426 47.5795 -0.00145757 -0.0198351 0.0162129
878 4 1 23.3392 11.4535 44.4169 -0.00171815 -0.0085047 0.00230077
2802 10 2 32.2566 14.4763 28.0831 0.00384052 -0.00966134 -0.0338574
1151 5 1 35.7914 17.1389 40.6246 -0.000983919 0.00379318 5.83286e-05
1777 7 1 31.7088 21.2822 42.863 0.00192677 0.00109463 0.000253591
2138 8 1 40.1317 16.5723 43.9397 0.00663134 0.00132766 0.00469134
884 4 4 32.0963 22.2438 42.3821 0.000310868 0.00563515 0.000993016
478 2 1 32.2357 14.5414 45.223 -9.96637e-05 -0.00102612 0.0015276
215 1 4 33.101 17.0758 38.8668 0.0014256 0.000878162 -0.00308003
1596 6 1 36.5854 16.524 40.0407 0.0104111 -0.0021278 -0.00743427
223 1 2 42.571 11.8099 45.1868 0.0012282 -0.0111262 0.010655
2303 9 1 40.717 18.734 43.0499 0.0016498 -0.00371941 0.00461117
2635 10 1 43.5647 18.8371 47.9564 0.00279333 0.00106922 0.00676108
1662 6 2 32.6793 11.0418 32.8482 -0.0167066 -0.0214192 -0.0101133
2532 9 2 47.1559 16.8834 35.2304 0.00691157 -0.00593471 -0.0106177
2735 10 1 52.3391 16.3504 39.5168 0.00269562 0.00190148 -0.00570661
274 1 2 36.2473 25.3502 34.034 -0.0195725 0.012521 -0.0115958
1712 7 1 50.2255 14.6275 39.6203 0.00400369 -0.00329569 0.00161365
1785 7 1 50.9923 21.5957 39.4406 0.00567425 0.00202773 0.000270722
46 1 3 47.2547 22.2499 42.7108 0.000458544 0.00278618 0.00165297
746 3 4 43.6206 17.5158 39.9742 -0.0037999 -0.00129652 -0.00160316
12 1 1 52.1688 19.0228 43.2765 0.000500722 -0.00140017 0.00147879
578 3 1 51.7255 15.9236 43.1829 0.000988179 0.00263014 0.000408239
631 3 1 51.6504 19.2568 43.5823 0.00122063 0.000936462 0.00437058
2049 8 1 49.5186 17.0471 47.2393 -0.00292978 -0.00334686 0.00604369
518 2 2 50.2331 18.4532 38.6713 -0.00496919 -0.0110769 -0.00838806
281 1 2 55.4137 14.2458 45.0604 0.0390887 -0.0110133 0.00321619
2020 8 3 0.959188 23.0837 42.5083 0.00376469 0.00363343 0.00410866
1095 4 2 59.1007 16.1735 41.4651 0 0 0
131 1 1 51.8536 21.878 38.9091 -0.00727612 -0.00344173 0.00238519
1396 5 2 8.75538 28.8365 41.6404 0.0129043 -0.0157342 0.0193751
309 2 1 3.04307 26.8188 43.7296 0.00250037 -0.00201707 -0.00430606
510 2 2 57.6055 27.9251 45.8509 -0.0349328 -0.00100986 -0.00252849
1465 6 1 15.5788 29.436 40.1809 0.00792031 0.00162411 -0.00346944
1281 5 1 9.60312 29.3372 41.7483 0.00303368 0.00336985 -0.00558941
1977 8 1 19.5525 27.8404 42.684 0.0014631 -0.000580112 0.00645641
2354 9 1 20.1154 34.205 37.2317 0.00141309 0.009997 -0.00677806
1673 6 2 10.7335 18.7822 37.5408 -0.0162022 -0.0205381 -0.00604884
1524 6 1 28.7522 20.7357 39.8098 0.00786323 -0.00422426 0.00274255
513 2 2 32.1751 29.0766 42.2377 0.0138408 0.00259784 0.0042843
144 1 1 23.917 26.3197 43.8607 -0.00273339 0.00179674 0.00115134
713 3 4 19.9649 27.7756 42.0881 -0.00601683 0.00146473 0.00112362
384 2 1 29.2317 26.4417 40.9941 -0.00129646 -0.000578261 -0.00220798
2767 10 2 19.5916 29.5778 37.7059 -0.00968069 0.00186176 -0.00915642
197 1 1 33.6488 25.4181 39.0115 0.00142257 0.00222982 -0.00136371
2331 9 1 35.9621 24.5457 40.3898 0.00297143 -0.00224086 -0.00652943
2771 10 2 51.0423 28.9113 39.48 -0.0103979 -0.00337827 -0.00243617
2259 9 1 46.5079 23.1723 46.7215 0.00533179 -0.00633654 0.00475771
342 2 4 43.2706 29.4116 44.2442 -0.00339377 0.00062283 0.000114637
789 3 2 33.5944 26.1803 41.2635 -0.0104201 -0.00593074 0.00108363
1954 7 2 38.0868 31.9432 41.456 -0.00723163 0.0156312 -0.00601959
1077 4 2 35.185 26.6278 39.1679 -0.0128597 0.00289984 -0.00919357
233 1 2 48.2543 12.2167 59.066 -0.00280288 -0.0250485 0.0289387
1195 5 1 47.3659 25.6331 42.6131 0.00267939 -0.00334098 0.000145218
1289 5 1 52.101 28.0501 40.8922 0.0024113 -0.00506961 0.00289619
38 1 4 50.5 24.9968 45.2137 -0.00099739 -0.000435737 0.00222732
1725 7 1 53.3053 29.2441 38.6082 0.00436777 0.00600765 0.00408416
499 2 1 49.3747 29.2553 40.0587 -0.00334514 0.00039287 -0.00264373
110 1 1 49.8934 26.1351 40.7926 -0.00834773 -0.00348459 0.0034209
1233 5 4 45.972 25.6263 37.698 -0.0011578 -0.00321294 -0.000259592
430 2 4 53.6108 22.6843 39.8671 -0.00252793 -0.00171039 -0.00107429
1129 5 3 44.5809 26.2989 40.897 -0.00127722 -0.00601422 0.000733207
538 2 2 54.2063 21.0199 38.7995 0.00199035 0.0183799 0.00761051
724 3 4 59.0058 22.6548 44.2952 0 0 0
75 1 1 57.2254 23.9881 39.5645 0 0 0
704 3 4 59.4134 25.906 38.4946 0 0 0
674 3 1 57.4307 23.4621 43.3912 0 0 0
649 3 1 55.3543 27.9716 43.8281 0.00565155 0.00273748 -0.00275795
352 2 1 5.29278 33.3537 40.9375 -0.000157706 0.00404199 -0.00253262
2185 8 1 1.41645 34.9692 41.3811 0 0 0
418 2 1 4.24153 36.6769 39.9168 0.00176311 -0.00687173 -9.38901e-05
654 3 3 4.32061 29.6292 39.663 0.00234632 0.00325312 -0.00876504
2464 9 1 7.51183 33.3412 46.1253 -0.00109483 0.000459319 0.00337111
835 3 2 11.2164 46.4447 50.0498 0.00250512 0.0207245 0.02357
1850 7 1 10.6383 29.1187 44.8025 0.00363415 -0.00661327 0.00544274
2381 9 3 18.0312 35.4039 41.053 0.000761848 -0.00203721 0.00383759
1464 6 1 14.7242 32.6675 43.3516 -0.00251616 -0.000560302 0.00406291
330 2 1 14.0646 33.212 43.3583 -0.00793607 0.0017808 0.00136366
276 1 2 15.5975 29.497 31.9088 -0.0024635 -0.009537 -0.0150048
1417 6 1 25.1805 37.4179 42.2703 -0.00404609 0.0108652 0.00536446
2004 8 4 25.1229 33.3293 40.1302 0.00389439 0.00177266 0.00423164
113 1 1 32.3116 35.8197 36.4967 0.00996508 0.00682449 -0.00280929
2787 10 2 19.569 47.031 42.039 -0.0171609 0.0202781 0.00154387
640 3 1 31.6647 32.8967 41.7705 0.0138957 0.00110734 -0.00258762
915 4 1 29.9706 34.186 38.8892 6.91368e-06 -0.000752201 0.000536238
1855 7 1 32.3132 32.4617 42.652 0.00396703 8.91491e-05 -0.00016841
1713 7 1 33.6781 37.8675 45.2855 0.00104161 0.00140669 0.0023127
441 2 1 35.7477 33.7049 43.5634 -0.00152167 0.00102158 0.00297449
1008 4 4 37.2612 34.4791 44.7169 0.00221205 -0.00208239 0.00381338
966 4 1 33.7609 36.1623 45.4017 -0.00233661 -0.00118574 0.00307294
1866 7 1 41.5262 36.2404 40.4947 0.00588424 0.000463278 0.000541149
1512 6 1 40.298 34.548 40.4158 -0.00462122 -0.00425669 0.00147982
2517 9 2 36.1227 25.4598 37.9769 -0.00773837 -0.0228686 -0.00335556
2475 9 1 51.5414 31.8961 37.8209 -0.00355468 0.0010737 -0.00359732
385 2 3 46.2165 32.6767 35.5131 -0.00324586 0.00503268 -0.00755861
1419 6 1 45.6308 30.8963 44.6403 0.000388369 -0.00275915 0.00597546
929 4 4 51.3967 36.829 43.8908 -0.0021186 0.000336728 -0.00073768
1304 5 1 52.1683 38.0074 44.3863 0.00121742 0.00467998 0.00191521
740 3 1 51.0729 33.2096 40.2364 -0.00264183 0.00406908 -0.00112591
392 2 1 53.448 35.467 43.4257 0.00413659 0.00156427 -3.04175e-05
657 3 1 56.3391 35.2257 44.3755 0.000236668 0.00401609 0.00157027
2459 9 1 53.2336 30.9474 39.9715 0.000994482 0.000648722 -0.00145734
448 2 1 57.0587 30.5013 40.8457 0 0 0
765 3 1 57.1039 30.7598 39.4036 0 0 0
1715 7 1 59.6588 35.6655 41.5287 0 0 0
344 2 1 58.1842 34.6087 39.5381 0 0 0
668 3 4 57.1884 36.0946 43.1908 0 0 0
2533 9 2 57.1615 32.7878 43.1117 0 0 0
1063 4 1 54.9356 36.9536 44.3548 -0.000695649 -0.00291237 0.00283844
1225 5 1 53.7425 32.1916 44.649 0.00529791 0.00562945 0.00186847
1967 7 2 57.0013 39.0276 48.5742 -0.0247174 0.000848976 0.0242398
2439 9 1 57.8065 45.7241 45.6658 -0.00667715 0.00841237 0.00511277
146 1 1 9.1954 40.0378 45.6177 -0.00570232 0.00461216 0.00176774
2433 9 1 10.0881 38.5606 40.1319 -0.00137737 0.000525918 0.00146418
2468 9 1 16.6298 35.462 38.5637 0.004914 -0.00624156 -0.00116214
650 3 1 18.0751 40.0291 41.7471 0.0157506 -0.00880251 -0.00451584
1544 6 3 11.5423 38.7296 42.0067 -0.00593355 0.00069732 0.00356614
1507 6 1 8.48753 44.261 38.1241 -0.00641675 -0.00491614 -0.00228601
1998 8 3 13.6181 41.8267 38.0512 0.00147602 0.00302993 -0.00825276
166 1 1 18.1576 42.3987 39.2228 0.00739793 0.0013949 -0.00927016
2479 9 2 25.3387 40.3536 52.0904 0.00853665 0.00271633 0.0228476
2148 8 1 22.8847 38.169 41.9424 0.00342433 -0.00621819 0.00534947
1933 7 2 15.0251 41.1374 42.5833 -0.00195998 0.00447589 -0.000804333
1921 7 2 15.9564 40.0378 37.5414 -0.00331013 0.00141795 -0.000108117
1797 7 4 14.8227 39.5475 43.62 -0.00202766 -0.00657309 0.00197021
2655 10 1 20.9305 35.7623 39.4038 -0.000277101 -0.00842434 -0.00599884
950 4 4 20.0587 40.2961 38.3981 -0.00519047 0.00144661 0.00124921
2812 10 2 21.1095 34.7419 45.2346 -0.0104665 -0.00753362 0.00781332
1038 4 4 26.6883 44.2683 42.743 -0.00238555 -0.000256736 0.00415979
920 4 4 24.6716 41.0982 40.9506 -0.000985679 0.000606632 0.00162273
904 4 1 29.7482 38.4436 43.2263 0.000861642 -0.00106887 0.00170025
1172 5 1 25.8291 35.8569 40.0358 -0.00137719 -0.00345542 -0.00109744
707 3 1 19.6029 47.245 39.2949 -0.00624502 0.00477199 0.000243176
453 2 4 26.678 44.4241 44.3685 -0.002983 0.00408043 0.0032805
1276 5 4 28.2077 41.8925 44.5558 -0.00147686 -0.000343293 0.00187557
2224 8 2 18.9321 43.2279 41.7386 -0.0145933 0.00103358 0.00209743
468 2 1 33.6284 46.557 38.5568 -0.000134311 0.00521219 0.00135117
1756 7 1 37.031 40.0638 38.824 0.0027258 0.00279436 -0.00167001
1040 4 1 32.0514 38.5115 44.3213 -0.00169892 -0.00175989 0.00473467
1942 7 2 33.2086 36.039 40.057 0.00252752 -0.0073122 0.0014098
363 2 3 36.1344 39.7148 43.9307 -0.00140633 0.00119876 -0.000294863
804 3 2 50.0523 40.2602 46.2568 -0.0190349 0.0164377 -0.0186447
294 2 1 41.7051 41.7872 42.8269 0.000240226 0.00547924 -0.000325224
730 3 1 43.8937 44.7798 42.4242 0.000212947 0.00509797 0.00185484
283 2 3 39.7712 43.5601 43.2433 0.000458435 0.00588341 -0.000923542
1332 5 4 44.1387 36.4434 41.9039 -0.000631462 -0.00330013 0.00231878
339 2 1 34.0115 45.6189 41.7901 -0.00771995 0.00164636 -0.00187151
2482 9 2 47.98 35.6461 38.2743 -0.0127542 -0.0149489 -0.00560846
421 2 1 43.2019 40.662 41.7071 -0.0037763 0.00272292 0.000144065
2392 9 1 49.5763 40.3721 45.9139 -0.00640044 0.00312537 0.00612402
1201 5 1 47.9551 44.3007 43.8356 0.00223362 0.00077693 0.000647526
1750 7 1 51.9899 45.4582 41.6032 0.00583525 -0.00010079 -0.000456702
719 3 1 47.5457 45.2829 43.4866 -3.02534e-05 0.00462818 0.00215292
367 2 1 48.4969 43.6478 40.1665 0.00149258 0.00216295 -0.0012227
2342 9 1 51.8075 40.5647 40.6859 0.00357863 -0.00140137 -0.0010253
1801 7 1 50.9945 43.4962 42.5242 -0.00316279 0.000239984 -0.000857562
552 2 2 38.0938 34.0491 40.3513 -0.0215575 -0.0099141 -0.00679591
253 1 2 56.6556 38.3109 39.9873 0.00297499 -0.0120132 -0.0124367
1974 7 2 55.3562 36.6161 44.3666 0.0290586 -0.0139922 -0.0011468
1223 5 1 55.0209 38.6032 38.8769 -0.00155763 -0.00575716 -0.00400578
655 3 1 54.3574 39.3492 37.9484 -0.00457206 0.00759611 -0.00113753
1516 6 1 59.0043 38.6099 39.7297 0 0 0
100 1 1 56.7352 45.5554 42.8395 -0.000842811 0.0029872 -0.00206546
964 4 4 0.511772 47.1807 38.9016 0 0 0
443 2 1 0.491441 46.5048 43.0251 0 0 0
1232 5 4 1.77264 49.3338 44.6478 0 0 0
1204 5 1 0.18258 51.1464 39.8858 0 0 0
1908 7 2 1.51441 47.8743 43.3947 0 0 0
1517 6 1 5.53887 46.8975 39.5323 0.00288261 0.00382312 0.00135841
1343 5 4 2.35027 50.8075 36.1323 0.00282597 -0.00236602 -0.00287412
1476 6 1 9.81709 46.9409 43.9498 0.000482243 0.00197209 0.00157783
2407 9 1 10.6628 53.5624 45.7101 -0.00239625 0.00396367 0.00437723
410 2 1 7.06002 51.9054 43.5102 -0.00412922 -0.00493262 -0.00319794
1158 5 4 10.7131 49.6607 46.4546 0.00207304 0.0011296 0.00620834
2027 8 1 9.21792 45.1898 41.3781 -0.000483016 -0.00698365 0.00222442
2346 9 3 12.8456 49.5869 37.7609 -0.00020768 0.00177217 -0.00662802
2684 10 1 11.2884 50.6175 39.6114 -0.000495523 -0.00348869 -0.00769132
204 1 4 13.4238 51.0258 41.8737 -0.00321045 0.00709477 -0.00130767
1929 7 2 9.81898 0.931458 38.602 -0.0149976 0.0191103 -0.002318
2378 9 1 19.2533 47.3356 43.3323 0.00505073 -0.0048085 0.00546098
1114 4 2 14.8415 40.366 39.4077 -0.0027459 -0.0133492 -0.00780445
2028 8 1 22.3802 47.2161 38.7706 0.00245463 -0.00618119 -0.0100123
788 3 2 33.3171 43.3126 37.6389 0.00813583 -0.0182815 -0.00246802
1454 6 1 27.744 46.8172 42.3849 1.84054e-05 0.00142065 0.00462958
189 1 1 22.2077 54.4345 45.1826 -0.00114705 0.00755689 0.000657125
1017 4 4 29.0502 49.7977 46.6356 0.000285231 0.000604535 0.00516272
648 3 1 21.4152 52.5086 44.2176 -0.00728676 0.00440571 0.000743716
2528 9 2 20.1983 52.839 36.7252 -0.0109883 0.00240221 -0.0115214
2343 9 1 32.6366 50.311 34.8171 0.00353692 0.00215919 -0.00758378
2356 9 1 32.6952 48.3615 34.7651 0.00418305 0.000733494 -0.00734278
666 3 1 28.9198 54.0899 41.1204 -0.00583624 0.00473099 -0.00179013
341 2 3 35.2945 51.5944 44.2369 -0.0033061 0.00439489 0.00123417
1316 5 1 37.7681 46.9184 39.5067 -0.000416972 -0.00113532 0.00271115
506 2 2 41.1175 55.317 49.1832 -0.00506699 0.0193937 0.00988042
314 2 1 41.1882 49.5125 42.3729 -0.00164397 0.0065273 0.000837183
232 1 2 34.8941 48.9141 35.9928 -0.0163712 0.00761144 -0.00716112
1879 7 1 43.2084 52.5762 44.9906 0.00564988 0.00469124 0.00261773
1327 5 1 37.7525 44.406 42.8291 -0.00161451 -0.00192041 0.00296542
1422 6 1 38.2532 46.5129 35.3413 -0.000999555 0.000844987 -0.00790795
207 1 1 48.8189 49.4177 36.9456 0.00394877 0.00696035 -0.00286287
1337 5 1 50.2266 46.1941 46.1366 -0.00017288 -0.00178718 0.00310011
2458 9 1 51.5278 47.2522 41.6672 0.00364896 0.00391476 -0.00552729
68 1 3 46.2827 49.3161 42.6942 0.000138338 -0.00606517 0.00116925
942 4 4 48.2323 41.9136 39.6141 0.00145285 -0.0107107 0.000559217
271 1 2 46.8568 50.9422 35.0175 0.00348456 0.00667463 -0.0129219
258 1 2 2.05292 37.5202 43.0327 -0.0117156 -0.0202871 0.00256093
790 3 2 56.2638 50.8816 44.2686 -0.0129319 0.00803141 -0.00679646
1927 7 2 52.5617 46.2728 42.3522 -0.00726021 -0.0210139 0.00392112
351 2 1 54.1283 48.1828 43.1501 -0.00195182 -0.0017834 -0.00103342
902 4 1 55.2395 52.4221 38.2015 0.0032046 0.00578716 -0.0023014
1241 5 1 52.8552 45.8505 38.3613 -0.00368242 -0.00199171 -0.00349184
1342 5 3 53.473 47.6103 43.2345 0.00379852 -0.00338444 -0.00118511
1321 5 4 2.45453 57.5395 40.2706 -0.000745153 -0.00291413 0.00543799
651 3 1 6.34186 55.3758 37.9155 0.00386851 0.000404821 -0.015018
226 1 2 1.12038 58.0244 38.2396 0 0 0
583 3 1 0.505363 56.0555 41.4608 0 0 0
1137 5 1 0.145135 54.6386 43.7489 0 0 0
1122 4 2 9.45446 1.45615 46.6422 -0.00676051 0.00311623 0.016903
1139 5 1 16.045 53.8307 44.116 0.00661189 0.00260683 0.000551914
51 1 1 7.8445 56.011 40.5841 0.00508067 -0.0048228 -0.00465535
1166 5 4 10.6392 59.5256 41.5295 -0.00490636 0.000547526 -0.00085111
2159 8 1 14.8739 51.7339 38.747 0.00103978 -0.00441241 -0.00652339
2366 9 1 17.4312 0.701212 40.5047 0.00161884 0.00285004 0.00486993
1180 5 4 26.0987 56.2951 40.2701 0.0139569 -0.00482336 0.00109662
890 4 1 20.8786 53.4308 42.6156 -0.00137408 0.000554358 0.00107631
359 2 1 18.5852 49.6424 43.3285 -0.00531657 -0.00878872 -0.00021211
599 3 1 28.99 58.2047 43.7892 0.00621 -0.00246506 0.00143763
851 4 1 20.4837 55.8075 40.923 -0.00497286 0.000733505 0.00177581
2021 8 1 39.5033 52.835 38.5868 0.00599646 -0.00572259 0.00173196
1494 6 1 32.3394 57.1536 38.4853 -0.00134092 0.00355633 0.000967052
935 4 1 32.1353 57.3338 43.2386 -0.00138594 0.00470315 0.00156432
1437 6 1 33.8602 0.630047 35.9574 0.000102031 0.00391121 -0.00765912
1003 4 1 46.7682 57.5347 39.0331 0.00425844 0.00310234 0.00300342
496 2 3 42.7653 55.0995 40.8517 0.00233046 -0.00373349 -0.000989462
622 3 1 38.1184 54.7764 42.078 -0.00357491 -0.00508191 0.00226899
910 4 1 40.1659 59.1767 43.5242 0.00253079 0.00351473 0.00183404
1271 5 1 44.6627 59.3308 45.4038 0.00153733 0.00276596 0.00201795
863 4 4 46.7351 55.239 38.9294 0.00118402 0.000601807 0.00183008
988 4 1 47.4524 56.2123 44.2712 0.00281007 0.00251825 0.00316063
1187 5 3 51.1981 54.0032 42.8085 0.00351926 0.00173503 0.000314664
49 1 1 46.2737 51.6802 39.6576 4.09479e-05 -0.00371596 0.00110572
354 2 4 50.2546 2.27237 41.1708 0.000224721 0.00591327 -0.000315849
2227 8 2 54.7718 53.3797 39.4605 0.0170335 -0.0138109 0.00322998
1205 5 1 50.8495 53.653 45.4306 -0.00488615 0.000339362 0.0033415
907 4 4 59.9613 3.09311 38.0362 0.00177943 0.00767422 0.000590071
470 2 1 52.5774 58.2146 42.2742 0.00042543 -0.000486561 -0.00166951
2254 8 2 57.7793 57.1031 43.2616 0 0 0
747 3 1 57.508 59.5107 38.8005 0 0 0
2582 10 1 55.9766 56.9589 43.3525 0.000712786 0.00203869 -0.0023631
574 3 1 1.64818 2.6524 50.6654 0 0 0
776 3 1 3.59332 2.61886 47.1766 -0.00100255 -0.00796419 0.00101079
809 3 2 0.361214 6.06129 46.9851 0 0 0
883 4 3 10.4195 4.97389 50.0482 -0.00380129 0.00229938 0.00291524
1782 7 3 13.5652 7.22604 44.5595 0.005382 0.000440135 -0.00400728
1799 7 1 16.8852 4.66899 55.3716 0.00419712 -0.00534758 0.00602017
53 1 1 10.0451 58.9268 44.6449 -0.00736958 -0.00248965 -0.00994302
1906 7 3 15.5188 3.69213 49.965 -0.00160623 -0.00401277 0.005658
2320 9 1 17.7431 5.88367 51.334 -0.00156198 0.00631233 0.006584
495 2 4 24.9573 1.2379 45.4396 0.0110141 -0.00505486 -0.0033113
1314 5 1 14.6202 2.51893 52.1988 -0.00480516 0.00194839 0.00539096
8 1 4 19.1088 4.99093 50.4923 -0.00270884 -0.00132381 -0.000320932
1217 5 1 16.2366 8.50829 51.8289 -0.00579088 0.00610506 0.00235218
1982 8 4 20.8436 4.37416 44.7585 0.00169872 0.00732763 -0.0048159
2724 10 1 22.8918 4.36887 50.0346 0.00558455 -0.00305534 -0.00292985
1068 4 2 22.0132 10.9202 54.8384 -0.00602115 0.016369 0.0167279
1084 4 2 31.5133 2.73434 40.7258 0.011615 0.000376276 -0.0100073
1895 7 1 25.7074 58.8132 50.126 0.000960487 -0.00528856 0.005009
198 1 1 24.7615 6.06193 52.6033 -0.000548303 -0.00207681 0.00126985
1671 6 2 28.3238 16.5221 55.3683 -0.000947243 0.0209804 0.00619727
836 3 2 41.7307 52.672 53.8455 0.0123567 -0.0169944 0.0140039
2405 9 4 33.9833 3.07602 48.4027 0.00237786 0.0052844 0.00479675
2706 10 1 34.4884 3.89 44.7821 0.00549407 0.0001608 -0.00593078
217 1 1 33.7318 0.621154 51.0188 0.000239754 -0.00211577 -0.000861642
1238 5 1 28.3248 2.67761 52.3169 -0.00470665 0.00403772 0.00360559
2728 10 1 38.4621 0.131977 50.6797 0.00572543 -0.002159 -0.00311466
744 3 1 39.5902 0.0293353 46.3464 -0.000134565 -0.00373813 0.00104409
348 2 1 39.9201 57.0805 47.1991 -0.00170958 -0.00674411 0.00159782
2326 9 1 43.8636 6.76902 41.6636 0.00443352 0.0065224 -0.00690108
1595 6 1 47.6729 57.1943 48.283 0.000814589 -0.00630134 0.00576199
42 1 1 48.9221 1.2573 51.0955 0.000983617 -0.00100914 0.0027319
136 1 1 46.635 3.90008 51.3872 -0.00642326 0.00088607 0.00691097
404 2 1 50.053 59.9078 50.7265 -0.00338568 -0.00305345 0.00238008
900 4 1 51.4843 5.01883 52.8639 -0.00406018 -0.00267692 -0.000429441
2385 9 1 47.1423 3.58596 50.822 -0.00649507 -0.00401433 -0.0031355
55 1 1 48.4175 58.8073 40.2572 0.000408897 -0.00276115 -0.0107384
2181 8 1 42.4983 2.4226 52.5829 -0.00599411 -0.00526482 0.000347974
1727 7 1 51.0519 2.06657 48.313 -0.00648492 -0.00394988 0.0019953
551 2 2 53.7155 6.08741 47.6316 -0.00434314 -0.00740355 0.00246105
2625 10 1 54.076 4.87534 47.4862 -0.00215531 -0.0046847 0.00018435
536 2 2 47.4907 4.12692 51.5892 -0.0136008 -0.00385289 -0.000190643
2240 8 2 57.0385 6.22163 48.9251 0 0 0
1877 7 1 57.8266 2.7139 49.6769 0 0 0
1414 6 1 59.0028 3.97085 48.5319 0 0 0
323 2 1 54.2189 7.15771 50.5648 -0.00517917 -0.00308247 -0.00407799
584 3 1 2.76719 7.13034 51.8228 -0.000824319 -0.00406883 0.001437
592 3 4 1.25794 12.1091 48.9928 0 0 0
768 3 4 0.598186 14.8812 48.8194 0 0 0
2595 10 1 5.24657 11.0636 45.3453 0.00581592 -0.00132861 0.00299212
30 1 4 2.87936 12.2054 45.6704 -0.00986281 0.00341039 0.00832208
1107 4 2 6.58838 18.8268 49.5278 0.00985916 0.0311105 0.00418771
1475 6 1 13.3301 17.4711 51.3888 0.00350741 0.00532869 0.00595862
2106 8 1 11.3331 12.8082 42.878 -0.00103117 -0.00107996 -0.006167
1651 6 2 27.0217 21.3456 5.15626 0.0123653 0.0164225 0.0336169
799 3 2 26.2994 15.4917 54.3352 0.0209812 0.00335124 0.0177069
188 1 1 15.4934 11.165 48.0194 -0.00217753 -0.0010076 0.00152808
1780 7 1 18.7706 14.9194 48.5798 -0.000893677 0.000311871 0.00125516
205 1 4 18.8124 7.87232 44.7354 -0.00127911 -0.00121974 -0.000776523
582 3 1 17.1734 14.2844 47.2431 -0.00754471 0.000486071 0.000248813
1564 6 1 13.9086 13.3048 54.9187 -0.00414749 -0.00299824 0.00587053
14 1 1 13.1325 4.88001 47.8532 -0.00430691 -0.0127072 -3.01543e-05
1676 6 2 35.4254 14.9092 39.7455 0.0122813 0.0140804 -0.0251934
791 3 2 24.9035 14.3363 54.7588 -0.0058917 0.0122789 0.0143888
955 4 1 25.7677 13.3884 47.5772 -0.00452127 0.00711348 0.00315124
633 3 1 20.2053 15.512 51.0647 -0.00756335 0.0098174 0.00333154
759 3 1 22.8377 6.86032 47.5516 -0.00419165 -0.00206254 -0.000128084
406 2 1 21.7223 13.6128 52.6584 -0.00285494 -0.00186245 0.00149849
1910 7 1 30.2613 11.5608 47.1998 0.000214653 -0.00208704 0.00436936
13 1 1 30.778 12.3753 50.9848 -0.00106121 0.00104405 0.000384565
1707 7 3 37.5643 8.01723 54.7313 0.00169306 -0.00424115 0.00486686
679 3 1 28.9245 9.5919 51.9995 -0.00466149 -0.00320962 1.20975e-05
1960 7 2 49.4175 18.0688 50.1657 -0.0269262 0.00596576 0.00997097
940 4 4 42.8123 6.09487 46.7638 0.000412259 -0.00516643 0.00255496
2419 9 1 40.1919 7.31897 41.2504 0.00395379 -0.00461001 -0.00967791
1569 6 1 42.0219 7.04696 52.8355 0.00165479 -0.00359581 0.00591631
2043 8 1 43.7197 11.0501 55.1848 0.00483313 -0.00128717 0.00574876
57 1 1 38.7624 10.1786 51.3116 -0.00159971 -0.000743076 0.00340512
580 3 4 41.2301 10.9507 51.5043 -0.00574713 0.000415911 0.000322059
1290 5 4 39.2376 15.1686 43.9648 0.00183153 0.00531011 -0.00992384
432 2 1 48.7988 14.1224 50.5227 0.000945354 0.00904029 0.00314494
22 1 1 48.9767 7.66708 43.0886 -0.00307527 -0.00203145 -0.00604035
2305 9 1 52.2883 13.8644 44.3401 0.00118245 -0.00259115 0.000774524
428 2 1 46.8377 11.9536 48.7213 -0.0028953 0.00193121 -0.00266803
596 3 1 57.8726 15.8269 46.998 0.00279531 0.00376547 -0.000406503
2472 9 2 53.3066 15.1274 48.9478 0.00253829 0.0104227 0.00756314
409 2 4 52.4877 8.69309 46.1175 -0.000311229 -0.00110227 0.00313627
1355 5 2 3.95639 17.8764 51.4304 -0.0200968 0.0109204 -0.0224379
602 3 4 55.4689 11.0251 49.2573 0.000677873 -0.00032558 -0.00157227
315 2 1 57.8307 12.0494 50.6332 0 0 0
1341 5 4 1.66693 17.0094 45.209 0 0 0
66 1 1 2.48048 20.9683 45.7988 0 0 0
2729 10 3 0.537515 21.377 48.8774 0 0 0
2757 10 1 2.40871 22.2559 49.8326 0 0 0
194 1 1 11.9111 22.3008 49.2139 0.00964583 0.00612118 0.00444898
1845 7 1 4.67918 20.169 49.0577 0.00283569 -0.00251735 0.00276311
2766 10 2 15.6848 20.2728 58.4587 0.00160456 -0.000408047 0.0200201
699 3 1 7.8398 14.4282 50.0036 -0.0176873 -0.00245795 -0.00487907
1753 7 4 12.2076 15.703 54.572 0.00899651 -0.00272272 0.0060625
751 3 1 17.291 17.2766 47.6322 0.00567976 -0.000419216 0.00195632
1169 5 1 10.1862 21.4855 45.8858 -0.00428575 0.00524571 0.000361966
2790 10 2 17.1056 25.5973 36.8334 0.0301794 0.00628786 -0.0285139
1784 7 1 23.223 15.9996 53.5811 0.0141979 -0.00861448 0.0112891
2357 9 1 19.951 21.0678 47.4398 0.0020514 0.00729797 -0.00495383
119 1 1 20.8058 18.8222 51.9989 0.00922831 -0.00323613 0.000148461
1245 5 1 14.1898 16.0069 50.89 -0.00734964 -0.00613623 0.0032838
397 2 1 21.2836 21.7869 45.9986 -0.00228048 -0.000423428 -0.00026288
1208 5 1 16.473 18.746 49.2686 -0.0047266 -0.0040604 0.00192672
1145 5 4 26.3498 22.5817 47.0762 -0.00360545 0.00511514 0.00207444
442 2 4 23.6144 14.2676 48.9462 -0.00393833 -0.00328087 0.00383624
2157 8 1 31.1354 18.0244 47.4864 0.00468449 0.00111507 -0.00466212
2314 9 1 24.6527 16.0072 43.7509 -0.000726262 -0.00358235 -0.00718442
1374 5 2 16.7595 19.494 49.5608 -0.0249797 -0.00366459 -0.00128936
818 3 2 32.06 25.1958 52.0062 -0.00451941 0.012314 0.0122774
2130 8 3 38.385 21.0919 52.4408 0.00566759 0.00218199 0.00602837
436 2 1 32.6289 17.8083 50.0635 -0.00214963 -0.00238873 0.00348651
199 1 1 33.3971 21.541 52.8303 0.00126022 0.00127 0.00122005
123 1 1 34.8976 20.1546 47.3393 0.000267529 8.99219e-05 -0.000191334
1127 4 2 30.0307 11.3485 41.9858 -0.00426645 -0.00785771 -0.00948703
1679 6 2 24.1636 18.7184 32.2827 -0.0138002 0.00177711 -0.0270871
1078 4 2 32.5599 18.0427 49.0428 -0.0106928 0.00284395 0.00408232
1612 6 1 38.0493 13.5553 51.9639 -0.00242615 -0.00434235 0.00729297
1154 5 1 39.0295 24.267 47.5539 0.000160309 0.0052714 0.00143998
151 1 1 42.1373 21.1733 53.3013 0.000725655 0.000821068 0.00390466
537 2 2 39.4466 16.2117 51.207 0.000305319 -0.00117725 0.0016172
108 1 1 38.1555 17.2269 44.5363 4.40936e-05 -0.00158483 -0.00152315
2815 10 2 37.6959 23.8699 51.5482 -0.00849078 0.00727586 0.00585395
1722 7 4 41.4017 16.874 46.4445 0.00276494 -0.0032762 -0.00979351
2220 8 2 48.9945 37.8308 1.04947 -0.0172031 0.0247531 0.00969867
1795 7 3 51.2141 21.0902 45.9851 0.00175009 0.00320663 0.000927078
1162 5 1 52.2776 16.9816 52.063 0.00078218 -0.00137955 -0.00473588
381 2 1 46.9528 16.8851 45.5062 0.00227837 -0.00291099 -0.00117115
479 2 1 48.033 20.6163 47.9375 0.0029924 0.000743453 0.0020499
1576 6 1 50.0951 17.768 55.3914 0.00305462 -0.0013456 0.00692288
1156 5 4 49.0758 19.0546 47.3747 -0.0025147 -0.00287808 0.000790043
288 2 4 50.0193 16.9119 48.6999 0.00217427 0.000725186 -0.000102618
1903 7 1 52.0639 21.4253 50.2742 -0.000632177 -0.000722748 0.00423995
2500 9 2 46.5535 22.0084 49.7458 -0.00688526 0.00606961 -0.000603739
1768 7 1 51.8052 17.045 48.6582 0.000388295 -0.00473107 -0.00243661
695 3 1 52.4448 20.7669 50.062 -0.00409123 0.00352244 -0.00248185
1808 7 4 59.249 18.1632 48.1683 0.00214161 0.004048 0.00431684
2511 9 2 58.7573 19.4724 54.751 0.00290984 0.00376878 0.0149168
618 3 1 54.5899 19.2591 46.4251 0.00118859 -0.00016502 -0.00114483
575 3 1 54.2844 19.1861 51.1535 -0.00228393 0.00220945 0.00490237
777 3 4 56.3379 21.4288 46.2824 0.00287266 0.000185082 -0.000486298
2781 10 2 55.9395 23.4418 49.246 0.00371826 0.00278986 0.00237843
2202 8 2 5.96255 25.0415 45.3328 0.0198131 -0.0178158 0.00341261
1613 6 1 2.24153 24.3723 47.6531 0 0 0
1791 7 1 3.62618 24.4943 48.5337 -0.00197628 -0.00072239 0.00129184
646 3 4 1.04342 26.9623 47.5199 0 0 0
312 2 4 0.729703 24.2545 47.2596 0 0 0
714 3 1 0.900365 27.4001 50.727 0 0 0
697 3 1 0.808402 27.243 47.8342 0 0 0
2486 9 2 57.3373 33.6507 48.5556 -0.00838538 0.00754985 -0.00418838
2359 9 3 15.0646 22.3254 47.4471 0.00457691 -0.00403842 0.00490912
1677 6 2 22.9764 23.8042 46.3809 0.0224644 -0.00221591 -0.00870253
2576 10 4 15.1175 30.5148 53.0837 0.0014573 0.00240295 0.00546014
393 2 1 13.3449 21.3891 52.0638 0.00185011 -0.00240269 0.00398486
2041 8 1 10.5152 17.9583 53.1173 -0.00135476 -0.0117239 0.00523526
259 1 2 14.2588 20.569 49.8932 0.0149867 -0.00521173 -0.00126445
2361 9 4 9.2358 20.8251 49.4709 0.000947657 -0.0051637 -0.00470766
2315 9 3 19.7431 21.6629 49.3666 -0.00164818 -0.00245483 0.00620332
1160 5 1 19.4849 27.1295 46.1277 0.00725159 -0.00174557 -0.00137973
2455 9 1 17.1635 25.6406 50.9391 0.000663299 -0.00436268 0.00421982
2263 9 1 22.652 26.2683 53.2954 0.00056761 -0.00536314 0.00580407
2663 10 3 18.6933 25.3524 47.377 0.00506994 0.00265555 -0.00834762
1260 5 1 12.3492 32.5228 45.676 -0.00617736 0.00918436 -0.009519
2200 8 2 22.0146 27.3655 56.9177 -0.00894607 -0.000422492 0.0202453
2803 10 2 19.9738 34.7075 51.5991 -0.00998785 0.0189141 0.00716661
311 2 1 26.1092 25.0559 52.6171 -0.00454295 0.00178539 0.00268001
2691 10 1 27.9649 30.5112 47.2632 0.00321678 0.00516943 -0.00653855
2715 10 1 33.7319 25.4004 53.801 0.00508178 0.00412568 0.0087548
1861 7 3 36.7596 23.8289 51.5518 0.00494453 -0.00192122 0.00226596
943 4 1 33.1667 23.786 51.9597 -0.00209126 -0.00180821 0.00359814
891 4 1 30.5116 27.226 49.1007 0.000797726 -0.00467239 0.00251095
2012 8 4 33.9849 25.866 48.8315 0.00553197 -0.000183406 -0.0074141
91 1 1 44.9811 23.2153 44.9995 0.000275616 -0.00066434 -0.000585302
994 4 4 45.9749 28.8748 50.5385 0.00302138 -0.00215243 0.0043905
1385 5 2 50.9748 40.0879 54.6577 0.00165236 0.0221776 0.0158487
949 4 3 45.6831 21.3664 51.3693 -0.000149771 -0.00272952 0.00360686
1144 5 4 48.4269 32.0311 50.3555 -0.00175931 0.00429655 0.00097254
921 4 1 49.1825 28.8104 52.3944 -0.00499275 0.00176493 0.00221656
1594 6 4 46.9637 24.5157 46.8221 -0.00303151 -0.000622054 -0.00294616
816 3 2 43.6383 14.9086 40.0476 -0.0109884 -0.0158021 -0.011174
72 1 4 54.101 29.5545 49.0329 -0.00136016 -0.00513441 0.00403604
2481 9 2 58.0349 28.732 52.4725 0 0 0
1661 6 2 53.6865 23.9986 46.8134 -0.000502961 -0.00689076 -0.00425433
731 3 1 54.8252 25.3914 51.6234 0.000275765 -0.00264473 -0.00251351
402 2 1 54.0236 29.8781 48.4576 -0.000273114 -0.00130886 0.00148512
973 4 4 1.74702 35.674 49.0562 0 0 0
854 4 4 8.43263 29.3222 47.3244 -0.0078038 -0.000156389 0.00244909
2578 10 1 12.6309 33.773 53.078 0.00101698 0.003641 0.00541801
1728 7 1 9.87829 34.813 46.844 -0.00385914 8.12013e-05 0.00126181
303 2 1 9.33161 34.9883 51.4049 -0.00714888 0.00382326 0.00201738
1174 5 3 19.1233 39.1184 48.0555 0.00765965 0.00465328 -0.00377697
106 1 1 15.7186 37.9373 45.2383 -0.00466048 0.00260167 -0.00155553
126 1 4 20.712 33.9641 51.1068 -0.0023954 0.00272382 0.000692959
1742 7 4 21.2641 37.7221 46.95 -0.00178438 0.00134042 -6.75953e-05
717 3 1 32.923 35.6648 48.0204 0.00879539 0.00283437 0.00305668
2268 9 1 25.1145 32.3067 47.9627 0.000686701 -0.00389247 0.00460794
473 2 3 23.8286 33.0814 51.4363 -0.00197107 0.00266788 0.00322446
401 2 1 21.9456 35.917 46.4725 -0.00213967 0.0024242 0.000112509
1844 7 1 29.2341 36.1353 53.0029 0.00250881 0.00175865 0.00190258
2351 9 1 28.5135 31.292 47.4257 0.0030753 -0.00231059 -0.00468946
1642 6 2 33.8447 16.3744 55.8669 0.000968946 -0.0289255 0.0195342
2212 8 2 26.0935 26.5623 58.7415 -0.0095721 -0.0100649 0.0184799
2515 9 2 43.5138 43.5604 53.6633 0.0242062 0.0270404 0.00403833
2738 10 3 34.9685 35.0692 56.3619 0.00444911 0.00363825 0.01021
637 3 1 29.783 31.5694 53.6767 -0.0053248 0.000828877 0.00362394
2734 10 1 45.5293 32.2935 48.1999 0.00656206 0.0038179 -0.00356702
1477 6 1 42.8064 30.0379 52.9034 0.00231729 -0.00120883 0.00467967
1420 6 1 38.0703 30.667 42.4869 -0.00129754 -0.002264 -0.00656183
2647 10 1 46.2493 37.6109 45.8451 0.00391745 0.00385037 -0.00477119
1598 6 1 41.518 33.2174 42.1524 -0.000712803 0.000960273 -0.00707971
1689 6 2 52.2312 32.3826 52.5681 -0.00203275 -0.00910998 -0.00443027
1236 5 1 50.0154 34.3487 46.6015 -0.000354516 -0.00139346 0.0023137
1094 4 2 52.0017 33.6607 54.145 0.0078258 -0.0110657 0.000933131
1043 4 1 47.0548 38.4086 50.3663 -0.0060139 0.00660334 0.00129754
395 2 1 51.9092 33.1775 44.8475 0.00674752 -0.00464018 -0.00202717
941 4 1 44.0191 27.9359 49.5973 -0.00644782 -0.00504113 -0.00227634
360 2 1 49.7121 29.7921 46.9516 -0.00126589 -0.0031505 -0.00297217
264 1 2 52.9161 33.027 50.0881 0.00074626 -0.00506657 -0.010591
228 1 2 44.0825 35.1184 50.8673 -0.0158271 0.00532193 -0.000254381
1215 5 1 54.9298 32.4491 44.932 0.00896517 -0.0021345 0.00181173
2653 10 1 51.9794 30.6957 50.1921 -0.00392182 0.000279454 0.000656863
2019 8 1 55.8789 31.5515 47.8693 -0.00182853 0.00341537 -0.00461874
690 3 4 54.2466 36.3231 48.061 -0.00034844 0.00451252 0.00380585
1133 5 1 59.5023 33.0454 51.4855 0 0 0
1218 5 3 54.3268 36.5094 50.4445 -0.00106529 0.00241822 -0.00129093
1397 5 2 2.3826 32.1506 49.9495 0.0155809 0.00164441 0.00100359
1522 6 3 0.60815 38.5133 49.7141 -0.00106461 -0.00227846 0.00803728
857 4 1 2.88863 40.2684 48.8136 -0.000987114 -0.000628377 0.0103387
1087 4 2 0.741058 38.4752 46.2555 0 0 0
662 3 1 0.767883 40.7174 46.9794 0 0 0
1361 5 2 0.585442 44.7153 47.7789 0 0 0
18 1 1 5.50397 45.218 49.9509 0.00469121 0.00032396 -0.00104923
2039 8 1 13.3693 43.5605 52.0932 -0.000779737 0.00537611 0.00474943
117 1 1 8.76657 41.6875 46.673 -0.00256524 0.0016293 -0.000510019
1863 7 4 13.1439 44.9243 48.8313 0.00231424 0.00425207 -0.00136431
894 4 1 9.24452 39.4633 52.5688 0.0106575 -0.0109951 -0.00245896
2398 9 1 14.9601 38.7225 48.5544 -0.00105898 -2.0696e-05 0.00502708
1185 5 1 27.0242 47.5761 52.3432 0.0114498 0.0102013 0.00458494
1702 7 1 20.8558 42.565 51.9093 -0.00132323 0.0031196 0.00476966
656 3 1 19.0111 43.9654 45.8995 0.00395001 0.00258987 0.00011569
2422 9 1 19.7257 40.2604 52.4511 -0.000327056 0.00162288 0.00428522
2090 8 4 21.5042 40.1215 49.8398 -0.000151966 0.0037509 -0.00353563
1128 4 2 15.7139 46.5424 35.4422 -0.00696662 0.0116283 -0.0235114
2377 9 1 22.8348 37.745 46.0219 0.00209137 -0.0017992 -0.00704562
586 3 1 31.7114 42.7716 49.2659 0.00721868 0.00651692 0.000977777
1852 7 4 24.4641 43.396 47.7382 0.00218083 0.0027112 0.000502447
379 2 1 23.5938 40.2482 44.5127 -0.00247864 0.00152623 -0.00124287
1869 7 1 29.8564 42.662 52.1828 0.00355508 0.00212101 0.00318997
1274 5 1 25.2129 38.6002 52.6214 -0.00202243 -0.00167457 0.00343949
7 1 1 29.2877 37.8849 45.0858 -0.00094687 -0.00639043 -0.00125884
2569 10 1 37.4102 43.2099 54.3399 0.00595924 0.00475519 0.00628497
82 1 4 33.5512 45.0286 48.7292 -0.00273336 0.00447592 0.00124484
672 3 1 31.7568 40.7315 51.653 -0.00461065 0.00208409 8.29967e-05
1348 5 1 33.4799 40.6816 49.6477 -0.00416182 -0.00279569 0.00243434
2313 9 1 33.6166 38.3693 48.487 0.000917327 0.000762864 -0.0058512
1608 6 1 41.4284 40.3071 51.138 -0.00141673 0.00140262 0.00661541
1117 4 2 45.48 43.8971 48.9055 0.0019144 -0.000169986 0.0055057
1050 4 4 43.0958 40.67 49.6463 -0.000194835 -0.0012882 0.00505247
1480 6 1 39.1921 43.4098 49.8774 0.00114963 0.00153616 0.00385228
400 2 4 43.4736 42.1636 45.1768 0.00177893 0.00361852 -0.000998035
28 1 4 41.1611 36.356 51.662 0.000281821 -0.00561541 0.0015248
1366 5 2 46.3681 52.331 49.2095 -0.0021769 0.0256077 0.00518844
376 2 4 46.9574 39.5105 46.4308 -0.00267244 0.00267953 -0.00152782
2745 10 1 50.6852 41.5191 46.4688 -0.00273934 0.00143895 0.00310361
1288 5 4 49.9952 41.8566 54.4137 0.00411324 -0.000562077 0.00459935
957 4 1 43.7043 39.9249 50.7456 -0.00378485 -0.00119613 0.00379169
1229 5 1 48.9311 43.6676 52.5662 -0.000507571 0.000929716 0.00312543
368 2 1 49.5482 41.4669 48.9119 -0.00131889 -0.00257595 -0.00351289
1582 6 1 44.7607 44.5999 46.6505 -0.00319424 -0.000629653 -0.00210806
1943 7 2 48.5262 45.8911 50.9693 -0.00284027 0.00898121 -0.00215879
1551 6 1 57.3803 35.3503 47.8415 -0.003427 -0.01093 0.00344779
1848 7 3 58.9224 40.9575 48.9681 0 0 0
1351 5 2 59.9632 37.9589 47.3869 0 0 0
548 2 2 52.377 43.6349 52.1437 -0.00605134 -0.00513079 0.00625101
2525 9 2 56.1967 58.7618 54.8495 -0.00459955 -0.00317888 -0.0150125
2519 9 2 11.0072 0.82795 9.3133 0.00241499 0.0232323 0.0400832
1714 7 1 9.67192 44.9525 47.0705 0.00438817 -0.00838827 -0.000911924
831 3 2 34.6729 34.3287 14.6745 0.055294 -0.0324857 0.0504262
1969 7 2 15.8173 57.5707 37.3328 0.0167306 0.00652323 -0.0241405
2393 9 1 10.2833 46.0012 46.0045 0.0135461 0.0083558 -0.00282029
2187 8 4 14.1793 44.9459 43.2846 5.26264e-06 -0.00835162 -0.00439049
1080 4 2 12.1606 34.6671 45.0869 -0.00318209 -0.0270376 -0.010559
1216 5 1 18.2538 50.3368 48.5574 0.0141401 0.00143031 -0.00691694
1042 4 1 15.8241 52.1808 50.2396 0.0129185 0.0102929 -0.00262544
1940 7 2 15.8345 1.79387 1.25187 -0.00192209 0.0218316 0.0289386
2416 9 4 19.3228 47.168 47.2966 -0.000247648 0.00348081 0.00411512
2414 9 1 15.8248 42.4243 49.1229 -0.00140025 -0.00993074 0.00428538
2209 8 2 15.6039 43.4955 49.5698 0.000673579 -0.00748189 0.00377915
1186 5 1 17.5799 50.8254 47.1216 -0.00262981 0.000887671 0.000932512
1007 4 1 20.3234 48.4425 48.4817 0.0100478 -0.000270974 -0.0059927
898 4 4 15.8784 49.1872 46.6648 -0.00190191 -3.15466e-06 -0.00951765
2374 9 4 19.1582 49.2345 49.0285 0.00136984 4.90978e-05 -0.00555549
1920 7 2 8.87611 54.844 43.513 0.00750575 0.0275699 0.00288523
2809 10 2 28.0161 54.4444 53.7786 0.00324482 0.00912768 0.00884452
2572 10 1 26.3391 49.6577 49.7156 0.00389721 -0.00549125 0.00538392
2327 9 1 33.9384 47.7871 42.7028 0.00246308 0.00254622 -0.00628764
364 2 4 28.9405 54.0599 51.5201 -0.0032265 0.00406598 0.000959223
1148 5 1 33.7768 45.6906 52.6985 -0.00183323 -0.00268129 0.0025257
211 1 1 34.3248 44.9867 51.0512 0.00105497 -0.00579865 -0.000534156
101 1 1 36.748 51.8242 50.5829 -0.000773395 0.00507064 -0.000256418
1044 4 1 32.9619 52.2729 47.2003 -0.00193283 0.00112278 -0.00690555
2367 9 1 40.6217 52.6643 50.3404 0.00617533 0.000974452 0.00681007
427 2 1 42.0553 46.0978 46.9549 -0.000160132 -0.00857944 0.00199399
340 2 1 36.623 53.5726 52.141 -0.00302201 0.00495293 0.00303161
440 2 1 43.6338 42.948 51.3343 -0.000212038 -0.008933 0.00423506
1636 6 2 32.932 51.5183 47.2321 -0.0132957 0.0017447 -0.00430943
619 3 1 44.5153 46.4558 44.5787 0.00931626 -0.00653483 -0.00920885
1641 6 2 50.6723 40.9874 52.1412 0.00462446 -0.0113219 0.00723025
832 3 2 55.803 54.775 53.9177 0.00864287 0.010424 0.00532898
1530 6 1 46.3879 41.9148 46.2639 -0.00402222 -0.00665977 -0.00320902
71 1 1 49.1678 46.6143 49.5341 -0.00259027 -0.00373587 0.00196287
2744 10 1 50.7993 47.3011 48.2022 0.00756405 -0.00632618 -0.00324536
2547 10 1 51.4342 51.4181 51.0672 0.000891415 -0.00242293 0.000945663
1655 6 2 49.1788 48.0623 48.306 -0.0191512 0.00530462 0.00567535
1220 5 1 57.0462 45.2165 45.8085 0 0 0
1270 5 1 59.3971 52.1385 45.3932 0 0 0
1234 5 1 59.05 49.7792 51.2411 0 0 0
1135 5 1 1.90092 54.8569 45.5984 0 0 0
1821 7 1 4.17276 55.9582 48.9603 -0.00232101 -0.00913805 -0.00447027
1284 5 3 14.881 54.1031 50.5894 0.00742788 6.23548e-05 -0.00303648
1884 7 4 18.2856 56.0269 48.2934 0.000356312 0.00572579 0.00334567
483 2 1 14.6542 57.2634 53.4426 -0.00362496 -0.00399851 0.00242892
2629 10 1 15.0197 58.4084 43.0704 -0.00277765 0.00922367 -0.00663813
1867 7 1 16.183 49.4199 53.3122 0.000926804 -0.00836542 0.00321325
1141 5 1 17.2163 54.008 49.7576 -0.00571733 -0.000809193 0.00203212
813 3 2 25.6779 37.5792 39.224 0.0214127 -0.0310663 -0.0125917
1952 7 2 22.2607 3.2196 51.2027 -0.0155998 0.010031 0.0077711
2171 8 1 24.509 55.6338 45.4709 0.00308901 -0.00475824 -0.00427843
1242 5 1 28.7829 57.734 50.2209 0.00739298 0.00237599 0.00302038
2420 9 1 23.1292 0.0682236 54.2199 0.000146449 0.00553304 0.00481978
2080 8 1 23.6096 58.3293 48.2879 -0.000512677 0.00708646 -0.00452321
1061 4 4 32.3616 57.5604 48.5599 -0.00357787 0.00129667 0.00501797
749 3 1 34.4223 58.5502 51.7379 -0.00173094 0.00772504 0.00175839
459 2 1 33.2074 56.6778 41.4904 -0.000755516 0.00658115 -0.00952792
1790 7 1 34.3503 55.5869 48.4434 0.00196365 -0.00329763 0.00234868
726 3 4 30.8252 53.0732 49.1743 -0.00324695 -0.00525096 0.00330725
1563 6 1 33.9834 54.3527 45.437 0.00022628 -0.00702665 -0.0078074
2764 10 2 32.4801 58.0354 36.5092 0.00473342 0.00694548 -0.0199826
1547 6 1 35.0494 58.5334 48.5894 -0.00088272 0.00484669 -0.00733273
1328 5 3 30.3089 54.7253 44.8571 -0.00335823 6.1861e-05 -0.00873478
1267 5 1 44.3538 54.6757 47.3108 0.00107155 0.00146395 0.00245277
1416 6 4 38.8736 1.22799 50.5813 -0.00143688 0.00295 0.00703467
484 2 1 42.5475 57.7031 51.2869 0.00217509 -0.00360559 0.00221278
1761 7 1 40.6104 57.3017 50.7942 0.00337188 0.00719154 0.00069945
152 1 1 37.4979 54.2562 46.1308 -0.00716415 -0.00442302 -0.00407178
489 2 1 43.4269 51.9622 51.0262 0.00218318 -0.00487217 0.00147763
859 4 1 37.8115 57.0856 52.2229 -0.0061924 0.000691376 0.000555106
1953 7 2 44.2505 44.5502 42.6684 0.00490651 -0.0208382 -0.0122969
1531 6 1 40.4465 56.8143 48.7954 -0.0015733 0.00366307 -0.00706431
1079 4 2 47.9067 51.2229 44.5713 -0.00256513 -0.00719227 -0.01588
764 3 3 50.0242 59.1043 47.0173 0.00081703 0.00826605 -0.000839742
2052 8 1 51.7073 51.4498 53.3334 0.00159412 -0.00589762 0.00699031
494 2 1 49.3864 55.8589 46.7718 0.00373089 -0.00350342 0.000442364
667 3 3 44.3537 58.1061 51.8011 -0.00254826 0.00540842 0.000213213
212 1 1 51.634 51.5454 48.5325 0.00303929 0.00328952 0.00170263
1165 5 3 44.8746 53.9175 46.3681 -0.00657931 -0.00232604 8.0526e-05
1014 4 1 48.2124 56.6382 46.4378 -0.00452066 0.00274356 0.00123789
2204 8 2 54.9685 57.8356 49.9816 0.00189539 0.0139644 -0.00862882
127 1 4 52.5355 0.631513 48.3679 -0.00378304 0.00548586 0.00210133
587 3 1 57.2417 57.313 45.8964 0 0 0
2490 9 2 55.4592 8.90041 46.357 -0.00196386 0.00165181 -0.0041646
180 1 1 6.35289 3.98775 54.1947 0.00151569 0.00886278 0.00456514
132 1 1 11.8461 1.90743 53.6693 0.00277904 0.0024187 -0.0014047
2805 10 2 10.2345 58.4606 56.2908 0.0113571 0.000907424 -0.00904756
877 4 1 17.103 2.58987 51.4779 -0.0031498 0.00158497 -0.00881642
805 3 2 22.4561 53.2247 52.7181 0.00454203 -0.0189331 -0.00869558
1534 6 1 17.2411 7.44664 52.4853 -0.00580977 0.00565313 -0.00620813
3 1 1 20.66 5.49413 59.4231 -0.00285719 -0.000793373 0.00121123
2634 10 4 29.8671 5.97687 56.1754 0.00050021 -0.00173303 -0.00439091
1901 7 1 23.8246 4.49045 57.2046 0.000277728 -0.00395391 -0.00527127
2036 8 1 25.1343 3.41592 55.9034 0.00205646 -0.00270862 0.00551827
1568 6 1 25.7498 7.63039 55.9943 -0.00146243 0.00811568 0.00666365
1731 7 4 24.5966 4.00127 55.1461 -0.000682683 0.00586625 0.00284142
2332 9 1 27.2069 8.15204 55.4661 0.00154777 0.00662941 -0.00396498
880 4 1 28.6827 4.33179 57.9497 -0.000478461 0.00206896 0.00478494
134 1 3 28.832 4.25722 56.3508 -0.0014846 -0.00278576 0.00279156
1365 5 2 30.8418 56.082 58.1945 -0.00990798 -0.0120429 0.0112533
1240 5 3 36.2973 9.83611 51.7769 -0.00320214 0.00498582 -0.00849982
1282 5 1 39.8862 4.1179 56.1685 0.00160545 0.00381838 -0.0073979
757 3 4 44.6106 0.225314 53.937 0.000682521 -0.00344314 0.00148761
1539 6 1 49.7962 2.31228 54.3028 -0.0076166 9.12845e-05 0.00282037
248 1 2 53.5519 3.42704 56.7334 0.0288005 0.000535767 -0.0205898
1794 7 1 51.9716 5.91095 54.1604 -0.000979535 -0.00668994 0.00171965
879 4 1 53.4167 2.48318 54.6674 0.000948921 -0.00519985 0.0028389
567 3 1 52.4701 6.23773 56.2659 -0.00573472 0.00144689 0.00378441
5 1 1 54.5452 7.6419 58.5827 0.002228 -0.00359745 -0.00244159
1336 5 1 54.2605 7.78878 58.8072 0.00037594 -0.000252925 -2.2837e-05
761 3 1 58.0647 6.26764 55.6754 0 0 0
34 1 1 3.62941 10.8041 55.2741 0.00406337 0.00320182 0.00439129
576 3 1 2.25714 14.5281 59.1961 0 0 0
2742 10 4 1.80708 8.81868 57.9316 -0.00440766 -0.00687132 0.0054472
2191 8 1 10.5888 16.3338 54.3885 -0.000537249 0.00921077 -0.0025275
195 1 1 10.9936 7.25813 55.8212 -0.00308668 -0.00146457 0.00227063
2624 10 1 19.053 16.2023 57.5845 0.00794553 0.00310922 -0.00443765
2613 10 1 21.4678 9.97343 52.7631 0.00715811 -0.00195005 -0.00761546
2810 10 2 17.3438 21.2468 11.2351 -0.010119 0.0145072 0.0249896
834 3 2 18.1248 9.94543 54.9104 -0.00440443 -0.00149231 0.00328467
1773 7 3 18.6334 9.85536 55.7495 0.00552353 -0.0085032 0.00432475
1466 6 1 14.2294 11.6844 58.5589 -0.0146371 -0.00482072 0.00683198
2817 10 2 17.3158 0.133689 5.33889 0.000518962 -0.0290379 0.0114822
2097 8 1 27.0631 6.87046 58.9207 0.00863917 -0.00582574 -0.00146654
2514 9 2 16.1934 12.5911 1.81029 -0.0223965 0.000488068 0.0171222
239 1 2 31.2225 1.31929 8.20597 0.0087211 -0.0155009 0.018591
2358 9 1 29.9943 11.3183 53.0838 0.010261 0.00411876 -0.00339238
297 2 3 23.4728 14.7677 58.794 -0.00382363 0.000102345 0.00303619
2527 9 2 34.7739 10.4559 7.35529 0.00381957 -0.00587602 0.0195899
2779 10 2 31.7169 25.3904 57.5459 0.00175197 0.0271057 0.00662778
2201 8 2 21.1401 23.5162 0.211625 -0.0199118 0.018099 0.00555925
2046 8 4 35.8253 11.5994 49.9665 0.00324705 -0.00134272 -0.00748469
1837 7 1 34.1411 5.99791 55.9273 0.00308362 -0.00388942 0.00274546
2726 10 1 38.2024 13.044 55.7863 0.00569609 0.000656407 -0.00224195
1363 5 2 46.9319 12.9403 51.6144 0.0150804 0.00500287 -0.0109715
2776 10 2 48.2224 10.0327 55.9977 0.00667729 0.000355145 -0.00564906
2072 8 1 42.9327 10.0051 58.2117 0.00322835 -0.00261199 -0.00349806
165 1 1 45.0961 14.1883 55.3651 0.00266401 -0.000656143 -0.00691218
1360 5 2 32.4563 7.97277 49.8062 -0.0157715 -0.00951363 -0.012751
1125 4 2 37.2817 9.75635 55.4563 -0.00235507 0.00364407 0.00520285
1690 6 2 44.4736 12.9316 6.67844 -0.000615884 0.00535413 0.0217403
26 1 1 43.7873 11.7354 55.3363 0.00123885 0.00121129 0.00271786
772 3 1 40.2077 9.58846 56.609 -0.00129466 -0.00138091 0.000416594
664 3 1 44.2636 12.0271 56.6142 0.00916772 -0.00381558 0.00154045
945 4 1 49.2083 6.39208 52.9471 0.000893651 -0.00545678 -0.00821498
35 1 1 44.4065 10.2415 56.7513 -0.00281753 -0.00135084 0.00457679
485 2 1 47.763 14.0492 53.2537 -0.00812967 0.00169978 0.000832034
386 2 4 49.6838 7.65193 53.5082 0.00328735 -0.00474981 0.000502649
685 3 1 50.7534 11.3419 56.6734 -0.0054473 0.000144529 0.000192075
388 2 1 46.5408 12.7427 56.4718 0.00260757 -0.00314767 0.00102336
1587 6 1 46.4072 13.0554 50.9257 0.00114244 -0.00232972 -0.00567286
97 1 1 53.596 7.73327 53.9324 0.0028829 -0.00612862 -0.00393393
693 3 1 59.7174 13.1441 54.5312 0 0 0
770 3 1 59.6399 13.8623 55.0008 0 0 0
2173 8 1 4.66512 16.2757 58.0387 -0.00344048 0.000153365 -0.00884531
678 3 1 7.37586 14.7896 56.4653 0.00906782 -0.00356233 -0.00779156
298 2 4 0.115801 21.3195 56.5293 0 0 0
181 1 1 2.87204 20.9395 54.6274 0.00368126 2.33918e-05 -0.000881902
711 3 3 6.67835 20.6932 51.0738 0.000638115 -0.00408718 0.00275044
1766 7 4 12.13 19.702 53.5751 0.00686847 0.000947941 -0.000924305
1739 7 1 10.9244 22.6862 56.8398 0.00226569 0.00233086 -0.00179212
477 2 1 11.0317 21.8638 58.0712 -0.00447007 0.000853158 0.00431144
1755 7 1 13.9084 17.6211 1.06027 -0.00207252 -0.00152298 0.00235945
2488 9 2 10.3233 5.62409 51.193 -0.00437893 -0.0193138 -0.0060254
2006 8 1 20.8728 14.5063 55.4192 0.00311835 -0.00198213 -0.00530837
838 3 2 14.4319 20.6269 52.2689 -0.00597483 1.95701e-05 -0.0111274
2102 8 1 26.1712 15.178 53.4923 0.00806002 -0.000169907 -0.00458337
2119 8 1 19.6578 19.3814 49.8375 0.000984567 0.000990084 -0.00612869
1834 7 1 16.6386 18.5991 2.2608 -0.000734682 -0.00158099 0.00461356
2178 8 4 20.1196 16.1432 52.4641 0.00465642 -0.00565347 -0.00474393
434 2 1 18.5321 18.8465 58.7129 -0.00492578 -0.0021559 0.00494257
2505 9 2 29.7642 0.199491 56.8004 0.0154643 -0.0352646 0.00123439
1222 5 4 27.2191 16.2405 52.7734 -0.00392157 -0.00404591 -0.00908513
2322 9 1 26.4919 20.9366 57.5238 0.000434179 -0.00269128 -0.00404724
535 2 2 24.7229 13.824 49.4676 -0.00142442 -0.014084 -0.0111729
1082 4 2 49.2812 18.2101 39.3603 0.0409344 -0.00336691 -0.033088
2758 10 1 27.2517 18.1884 56.6191 0.00179413 -0.00158253 -0.00253378
220 1 1 26.8435 17.2188 56.9823 -0.0015589 0.000938951 7.24544e-05
2770 10 2 21.9061 20.8096 54.4983 -0.0153614 -0.000404164 0.00100001
2636 10 1 31.7589 17.5646 54.0322 0.000666381 0.000367926 -0.00430217
1897 7 4 38.7147 14.606 1.98621 0.00400053 -0.0026134 0.00759704
366 2 1 32.4654 16.3617 55.7252 -0.00193713 -0.00346266 0.00185884
6 1 4 35.5369 18.7192 57.0363 -2.50104e-05 0.00194824 0.000549463
530 2 2 44.5004 25.197 50.8832 0.0131963 0.0110794 -0.0121978
2312 9 1 38.9834 17.4105 57.6113 0.00189688 -0.0034229 -0.00445933
415 2 1 39.2167 17.1368 57.9779 -0.00643152 0.00402276 0.00696373
2105 8 1 46.2742 15.6001 0.394382 0.00623323 -0.000896979 0.00920788
1744 7 4 39.8479 14.7664 58.6871 0.00267778 -0.00369892 0.00255142
638 3 4 37.5955 15.094 59.4554 -0.00340751 -0.00224801 0.00499647
1525 6 1 40.5696 20.3482 1.37332 -0.00185829 -0.00389216 0.00720146
1022 4 1 39.5338 18.0273 51.1 0.00178536 -0.00568294 -0.00543659
1772 7 1 50.0983 17.525 51.4818 0.00571787 -2.75998e-05 -0.0104946
63 1 1 48.7719 21.224 55.8516 0.000395581 0.000846009 0.00427493
712 3 4 45.8917 21.4637 56.2526 -0.000931257 -0.00070206 0.00397573
1704 7 1 50.6314 18.0348 59.0332 -0.00121109 -0.00359619 0.00379159
605 3 1 47.7971 19.8751 51.3917 -0.0030398 -0.000249228 -0.00562843
231 1 2 40.6141 8.98748 59.0771 -0.0220607 -0.0262366 -0.00115757
1510 6 1 50.7756 18.1759 50.4133 0.000860721 -0.00502422 -0.00845673
1767 7 1 57.878 17.1228 53.3766 0.00517005 0.00563948 0.00115445
1646 6 2 52.4909 15.8207 56.6456 0.0186784 0.00204237 -0.00616812
416 2 3 52.1581 15.6333 58.8498 -0.0031945 -0.00403074 0.00118316
2548 10 1 57.0448 15.0229 57.8774 0 0 0
2550 10 1 59.5183 16.4081 53.4371 0 0 0
2661 10 1 58.5426 15.186 56.3584 0 0 0
1603 6 4 57.3843 18.7272 54.1225 0 0 0
324 2 1 57.3942 19.7178 56.0894 0 0 0
771 3 1 58.3496 20.5525 59.8015 0 0 0
81 1 3 3.75597 29.4245 54.0682 -0.00369666 0.00543427 -0.00198318
2508 9 2 17.2201 29.1142 48.7544 0.0198196 -0.00208405 -0.0121807
572 3 4 0.717497 23.1296 52.7629 0 0 0
2425 9 3 10.9079 22.2179 53.9536 0.00183906 -0.00303451 0.00173491
128 1 1 11.3541 22.2541 59.5593 0.00358835 -0.000587182 0.00453048
2141 8 1 13.2375 30.5583 2.90588 0.0011531 0.00461826 0.00897918
641 3 1 9.85974 27.0814 50.9489 0.00369876 -0.00191614 -0.00749676
1874 7 4 14.9286 28.6779 0.245932 0.000232716 -0.000204223 0.00483899
1809 7 1 13.5468 24.1733 0.647177 -0.00181365 0.00135887 0.00617444
1565 6 1 17.2821 29.7627 56.0637 -0.00323919 0.000299941 -0.00574326
709 3 1 17.2531 25.1361 52.7184 -0.00666417 0.000270826 -0.00881213
2489 9 2 14.481 25.7228 7.8461 -0.0038038 -0.00247703 0.0208062
2372 9 4 20.6177 21.9144 52.6707 0.00238133 -0.00507532 -0.00526646
752 3 1 14.7765 24.4262 54.8876 -0.0054049 0.00117164 0.00207192
1788 7 4 17.2121 29.1016 0.187153 -0.00158498 0.00312851 0.00417943
1559 6 4 19.8103 21.8093 51.8021 -0.00313094 -0.00207474 -0.00624217
94 1 4 21.0432 29.8535 53.1642 -0.00443917 0.000469092 0.00119084
1999 8 1 25.3905 26.2423 50.3921 0.0038171 -0.000242744 -0.00600737
1177 5 1 25.2818 32.355 56.5661 -0.00108683 0.00857941 0.00228261
420 2 4 27.4413 29.2003 1.52009 -0.00233753 0.000302052 0.00412922
1647 6 2 40.8199 21.4769 44.0567 0.013444 -0.00819294 -0.0175754
895 4 1 32.1737 28.0582 54.6347 0.00135074 -0.00382256 0.00352435
2134 8 4 33.5332 27.5754 52.7875 0.00449484 0.00388829 -0.00582009
1710 7 1 37.4995 22.4237 0.055545 0.0016631 -0.00154407 0.00571071
403 2 1 34.4042 30.3422 0.103451 0.000116046 0.00140184 0.00296069
1528 6 4 33.2685 26.9866 53.4289 -0.00311611 -0.00319448 -0.00656762
238 1 2 42.8636 24.1941 11.6452 -0.000157483 -0.0103302 0.0313024
2510 9 2 44.6669 29.9973 52.5777 0.00610259 0.00832645 -0.00524926
86 1 1 42.8004 22.4847 55.2316 -0.000630123 -0.000463068 0.00221371
663 3 1 38.4309 27.3629 55.6086 -0.00383182 -0.000969616 0.00135232
1637 6 2 41.0023 30.2158 56.2895 -0.0159555 0.00645502 0.00598194
210 1 1 47.6293 28.8788 58.197 0.00407945 0.00305515 0.0011378
285 2 1 46.0874 29.9238 51.9249 -0.0044583 0.00660568 -0.00177272
2297 9 1 47.7574 25.7403 53.2468 -0.00195539 -0.0040026 -0.00222815
562 2 2 1.35925 26.5975 50.8656 0.00445463 0.00397169 -0.0112958
2541 10 1 56.6843 27.3234 58.0708 0.00154264 -0.00120178 0.00356808
1684 6 2 58.0661 23.9131 53.4524 0.00455474 -0.00553665 0.00947573
2560 10 1 52.9334 25.555 58.7314 -0.00336487 -0.00112293 0.00207409
1490 6 1 58.3039 25.3549 58.0666 0 0 0
355 2 1 58.8998 24.5565 56.7147 0.00587971 -0.00352504 0.000555905
566 3 1 57.9225 24.6419 55.0545 0 0 0
665 3 1 53.6693 25.737 57.5592 0.00412469 -1.4504e-05 -0.00416557
2355 9 1 1.23253 30.6282 54.7225 0 0 0
1706 7 1 11.4957 34.5867 52.2116 0.00207535 0.00286379 -0.00786546
419 2 1 8.73217 36.0512 53.7806 0.00220289 0.00148159 -0.00432427
1451 6 1 16.7157 29.7914 1.22578 0.00519697 -0.00595877 0.00776999
1394 5 2 12.829 31.7185 51.7145 -0.0033762 -0.0036955 -0.0079237
1372 5 2 25.6345 41.9441 57.6187 0.0205564 0.0107779 0.00884574
2261 9 1 19.9696 27.6958 56.1421 -0.000137872 -0.00524525 0.00651823
893 4 1 14.128 30.9207 58.7239 -0.0023276 -0.00349706 0.00424098
2644 10 1 26.9332 35.9195 58.2544 -0.000211157 0.00385571 -0.00251112
2772 10 2 36.2015 36.4149 43.8792 0.0135966 0.00389476 -0.0183713
1959 7 2 20.1341 29.7452 52.1368 -0.0102002 -0.0122572 -0.00943524
1546 6 1 27.1754 34.8106 57.9413 -0.00261272 -2.64863e-05 0.00693327
1723 7 1 26.1786 32.5168 58.5875 -0.00106188 -0.000159044 0.00410569
2543 10 1 24.3224 37.9646 53.6183 -0.00986271 0.00269072 -0.00373493
1672 6 2 19.7701 34.9364 48.1323 -0.0212331 0.00261026 -0.017745
161 1 1 31.8279 34.2139 56.5198 -0.000488623 0.00356739 0.00524015
1018 4 1 37.8342 34.1444 54.9392 0.00182203 -0.00216893 -0.00477896
492 2 1 37.8262 38.0494 55.2149 0.00132624 0.00475748 0.00232139
408 2 4 34.2962 33.1285 57.9728 0.000149246 0.0018441 0.00298576
1973 7 2 39.6872 29.9764 56.9933 0.00240385 -0.0104955 -0.00496315
520 2 2 43.1619 32.86 45.8841 -0.00120201 0.000738799 -0.0224274
1945 7 2 42.6499 24.964 6.67563 0.00466938 -0.0226474 0.0194301
2782 10 2 37.116 37.3869 53.8249 -0.00884444 0.0134721 -0.00186701
793 3 2 48.5099 38.5166 48.9008 0.00997097 0.00571412 -0.0100862
1411 6 3 40.929 33.4925 55.9269 -0.00123641 -0.0021985 -0.00399981
1488 6 1 45.0038 33.2208 59.4297 0.00174336 -0.000819243 0.00540233
87 1 1 39.8847 38.538 57.6465 -0.0055086 0.0059422 0.000145832
694 3 1 44.0411 37.4988 0.802592 -0.00127257 0.00271295 0.00293732
1130 5 1 44.1076 35.2564 57.5533 -0.00164109 -0.00414091 0.00412586
2307 9 1 50.1853 32.3597 55.9957 0.00380825 -0.00069985 -0.00499826
958 4 3 49.1242 35.026 55.9878 -0.00100836 -0.00211163 -0.0064131
760 3 1 46.2351 32.4831 53.2958 0.000375611 -0.00940878 0.000997152
1606 6 1 45.1371 32.9273 54.2352 -0.000527974 0.000157467 -0.00482076
591 3 1 45.3029 34.5702 52.9878 -0.00492113 -0.00077964 0.00033471
1206 5 1 42.8692 29.6884 58.3719 -0.00453145 -0.00352215 0.00360144
1168 5 1 45.6716 34.4095 59.4697 -0.00290809 0.00120917 0.000771523
1664 6 2 57.004 33.0492 56.5025 0.0113692 0.00942241 -0.00649821
954 4 1 53.9058 31.0739 54.8737 -0.00100904 -0.00379989 0.00119946
2183 8 1 59.2467 34.1022 54.2813 0.00255057 -0.00369946 0.000913444
658 3 4 58.8648 30.4105 54.2891 0 0 0
673 3 1 58.0161 34.4014 59.2004 0 0 0
322 2 1 0.0213178 43.1966 59.2459 -0.0084473 0.000726571 0.00345946
1428 6 1 15.1482 49.5701 58.9961 0.00849184 0.00943684 -0.00107691
2301 9 1 10.3618 40.1854 57.3502 -0.00449884 0.000256472 0.00708905
2156 8 4 9.99285 37.9838 51.4012 8.29699e-05 -0.00676865 -0.00444316
2497 9 2 19.2268 42.9408 11.7483 0.00740443 0.00848254 0.0339244
2338 9 4 18.6602 39.9843 56.409 -0.000137364 0.000518464 -0.0029612
1695 7 1 15.2128 40.9636 2.47561 -0.00292923 0.00321311 0.00721452
1312 5 4 13.0068 37.1457 59.6514 -0.00454344 -0.00308646 0.00706087
1053 4 1 19.637 40.5954 52.3732 -0.0054308 -0.00153233 -0.00653356
2768 10 2 15.0242 30.5468 53.2322 -0.0103134 -0.0211362 -0.00551775
2379 9 1 28.194 35.9486 58.5188 0.003063 -0.0139567 0.00729416
1455 6 1 36.7747 40.8897 56.4061 0.00196894 0.000476744 0.00743683
1658 6 2 22.4523 48.353 53.25 -0.0213177 0.0187652 -0.0039818
1825 7 1 46.394 39.7993 1.89289 0.005188 0.00330266 0.00530058
1786 7 4 47.1183 34.5114 56.4581 0.00522346 -0.00742892 0.00333822
380 2 1 38.0557 39.616 54.9489 4.33347e-05 0.001801 0.000660376
1016 4 4 45.1713 39.0619 51.7578 0.00366626 -0.000730824 -0.00543125
104 1 4 38.1809 45.6964 0.247505 -0.000335817 0.00364369 0.0016929
338 2 1 45.7632 43.8446 51.719 -0.00138436 0.00320611 -0.00906299
1072 4 2 41.9367 47.8204 4.20646 -0.00688762 0.0160128 0.0121697
191 1 3 48.1289 41.5884 57.801 0.00424539 0.00509647 0.00304499
1734 7 1 51.5933 38.7258 53.2526 0.00122749 0.00463354 -0.00307831
691 3 4 47.5548 40.3102 56.9701 -0.00191389 0.000950468 0.00300495
1857 7 1 51.3015 39.9157 58.6167 0.00136743 0.000314648 0.00619141
1012 4 1 48.8006 39.1935 54.1292 -0.00250609 -0.0027938 -0.00204915
192 1 4 51.2103 44.4101 57.8129 -0.00136982 0.0011594 -0.00111626
1442 6 1 48.8102 42.4475 55.105 -0.00476784 -0.00214506 -0.000578961
925 4 1 48.8705 42.636 53.9497 -0.00316441 0.000465604 -0.00224778
708 3 1 57.908 38.2719 55.8636 0 0 0
1388 5 2 1.83838 36.5088 57.7364 0.00722404 -0.0142358 -0.00141645
1653 6 2 5.05915 43.7651 58.7514 -0.0213885 -0.0031465 0.013878
2324 9 3 13.2833 48.6432 57.0039 -0.00193835 0.00289443 -0.00374043
1356 5 2 13.249 7.79585 16.9932 0.00865576 0.0324033 0.0349289
1889 7 1 7.16276 48.3209 54.429 0.00367764 0.00530908 0.00387652
1891 7 1 17.2868 49.6561 52.9835 0.00610475 0.00174383 -0.0023991
1134 5 4 12.8393 43.8318 51.0112 0.00803387 -0.00939634 -0.0100898
1196 5 3 11.82 46.1886 1.0923 -0.0046494 0.000950125 0.00389186
1373 5 2 56.3305 48.4808 49.144 -0.0162731 -0.0253004 -0.00455815
2775 10 2 9.34956 53.3132 47.1864 -0.0134905 0.00918084 -0.0201601
512 2 2 12.9218 46.6459 0.649042 -0.00718283 -0.00611522 0.00466201
2321 9 1 29.0089 48.738 57.044 0.000744974 0.0030898 -0.0037576
498 2 2 28.8052 3.23499 4.81705 -0.000416953 0.0219888 0.015623
918 4 4 28.7753 52.7087 48.3556 -0.000177134 0.00288515 -0.00980688
1567 6 1 23.5785 50.247 49.4606 -0.00198829 0.00488959 -0.00698307
2258 9 1 34.345 48.8031 56.948 0.0033862 -0.00131499 -0.005164
1001 4 1 31.4217 47.4456 57.0414 0.000955741 0.00106992 -0.00583631
105 1 4 32.217 49.0623 57.2311 -0.00183801 0.00514867 0.000885022
32 1 1 33.7055 46.9278 58.052 -0.0010143 -0.00370503 0.00370299
373 2 1 36.237 53.6624 57.3644 -0.000370205 0.00402308 0.00153668
73 1 1 35.7284 55.0129 57.4381 -0.00182972 0.00675018 0.00383922
967 4 1 33.5358 47.0955 1.24424 -0.00221484 -0.0109443 0.00669625
2292 9 1 43.1506 48.4505 55.3295 0.00233132 0.0011751 -0.00593051
897 4 1 39.1373 50.0379 59.7767 0.00279187 0.000536772 0.00482314
821 3 2 27.491 54.0256 55.8655 -0.0343544 0.00992392 -0.00222622
872 4 1 50.3154 50.0301 56.8939 -0.00402678 -0.0031671 0.000585962
810 3 2 50.1748 50.1404 57.5568 -0.0104367 -0.00290017 -0.00164118
1955 7 2 49.5008 46.1412 5.26864 0.00624435 -0.00886036 0.0160175
2732 10 1 51.6098 54.4405 54.2712 0.00362101 -0.00155687 -8.83208e-05
1735 7 1 46.8916 52.8836 56.7684 0.00358231 0.00370851 0.00237929
2406 9 1 51.5551 48.0771 54.2205 0.00302808 -0.00127792 -0.00377765
671 3 1 44.4831 49.2322 53.1507 -0.00342506 0.00292749 -0.00186223
919 4 1 52.7205 48.4869 54.777 -0.000434012 0.00115213 0.00139975
820 3 2 1.77991 49.3595 0.613987 0.0182809 0.00903789 0.00427309
2197 8 2 59.5921 48.3227 59.9145 0 0 0
1147 5 1 5.52731 54.5421 54.4629 -0.00268205 0.000681552 -0.00151881
244 1 2 1.57366 53.7658 57.1702 0 0 0
2704 10 1 3.89954 52.8218 57.1178 0.00399164 -0.00964221 -0.00429543
243 1 2 17.05 12.5204 55.0585 0.0251059 0.0496669 0.00147333
1311 5 1 14.8596 51.8598 52.9063 0.0029696 -0.00217177 -0.00982323
2431 9 1 11.7768 57.9825 56.4251 0.0013509 0.00456389 0.00550573
2033 8 3 14.3051 51.7297 57.9544 0.000132612 -0.00513326 0.00579748
2683 10 1 12.8033 58.7493 54.3752 -0.000579133 -0.00166675 -0.00472677
150 1 1 9.59787 57.2464 0.0289111 -0.00569643 -0.00417373 0.00508358
2761 10 2 10.5175 50.1019 4.69767 0.00234911 -0.0194755 0.0135136
2402 9 1 14.1429 56.6673 50.5727 0.00245806 0.00190872 -0.00874654
2010 8 1 14.6589 53.2486 1.88472 0.00185498 -0.00612687 0.00749214
2144 8 4 18.2548 51.5324 56.6423 0.00202896 -0.00299472 -0.00417174
2110 8 1 18.9867 56.3012 55.8261 0.000980135 -0.00436516 -0.00413698
383 2 1 18.5924 55.7531 0.0193198 0.00430615 0.00597438 0.00413539
2470 9 3 17.3309 53.3872 1.93429 0.000879777 -0.000308555 0.00700986
1200 5 4 14.6213 59.261 56.9194 -0.00423293 0.0036294 0.00262148
1143 5 3 14.6734 57.593 1.23585 -0.00600311 -5.09937e-05 0.00447817
2660 10 1 28.0603 57.7781 52.2132 0.00782688 0.00112996 -0.012215
2270 9 1 26.4143 54.6772 58.4696 0.0078552 0.00403753 0.00929303
2485 9 2 29.7695 49.2879 50.5886 -0.000384293 -0.0114658 -0.00653968
1836 7 1 26.1425 58.5757 59.0262 0.00126789 0.00644195 0.00370583
1178 5 4 28.7931 54.1704 59.7749 -0.000539182 0.000680471 0.00256918
2524 9 2 39.354 40.5301 8.84426 0.0183575 -0.0387302 0.0322429
1771 7 1 38.7396 56.7937 1.08709 0.00306051 -0.00405247 0.00326862
1581 6 4 30.8961 55.8964 52.4691 -0.00101478 0.00616967 -0.00527098
1615 6 4 28.7112 56.7827 51.6332 -0.00436797 0.00447433 -0.00460497
67 1 1 31.8699 58.9982 1.87562 -0.00274143 0.00809243 0.00519052
2047 8 1 37.8464 54.172 53.7214 0.00356009 -0.0044486 -0.00616772
766 3 1 30.5692 53.0083 57.5109 -0.00300157 -0.00480954 0.00103959
2811 10 2 52.2046 51.1415 58.1345 0.0108273 -0.00716288 0.00239702
844 3 2 45.9571 48.1435 4.33156 0.00980583 -0.0177801 0.0140625
461 2 1 45.2367 57.1924 56.2174 0.00177434 -0.00523832 0.00494269
1209 5 3 42.8807 55.3606 55.4354 0.000370548 0.00332891 0.00297089
48 1 1 46.3522 58.5766 58.1928 0.0124342 -0.00212009 0.00489216
69 1 1 36.9498 56.1661 57.7279 -0.00192083 -0.00474359 0.00399057
903 4 1 42.8837 0.567878 59.4572 0.00341195 0.00341458 0.00452423
1269 5 1 45.4289 54.7546 54.1894 -0.00768112 0.00282613 0.00110457
1210 5 4 45.6073 57.0535 58.7637 0.000927268 0.00366129 0.00317293
444 2 4 47.4818 3.00358 59.5079 0.000439369 0.00725952 0.00574058
1963 7 2 45.4711 7.42715 57.4305 -0.0128226 0.0211045 -0.00267126
1091 4 2 54.462 54.5866 50.5267 0.000901606 -0.0135721 -0.0142595
305 2 1 58.5878 56.0935 53.8533 0 0 0
ITEM: TIMESTEP
15000
ITEM: NUMBER OF ATOMS
2820
ITEM: BOX BOUNDS pp pp pp
0.0000000000000000e+00 6.0000000000000000e+01
0.0000000000000000e+00 6.0000000000000000e+01
0.0000000000000000e+00 6.0000000000000000e+01
ITEM: ATOMS id mol type x y z vx vy vz
2677 10 1 3.48359 0.342616 0.468019 -0.00802701 0.00223331 0.00894913
1859 7 1 7.30145 6.57566 4.89646 0.00152893 0.000494055 0.00100773
1466 6 1 4.4337 9.20537 2.74078 -0.00450822 0.002792 -0.00553234
1086 4 2 29.5127 14.2243 39.9442 0.0466513 0.0195542 -0.0430191
2670 10 1 4.25973 2.46904 6.91342 0.0015146 -0.00212365 -0.00658809
1441 6 1 9.80714 0.638234 7.80592 0.00438809 -0.00296147 -0.00278684
2431 9 1 15.1541 9.39226 10.1894 0.0013509 0.00456389 0.00550573
3 1 1 13.517 3.5107 2.45119 -0.00285719 -0.000793373 0.00121123
1367 5 2 16.8237 9.97221 6.67678 0.0163007 0.0083261 -0.00114973
2659 10 1 11.1442 1.26577 7.74338 -0.0012153 -0.00197696 0.00782965
834 3 2 11.4692 7.45958 5.6982 0.00591565 0.00150628 0.00931157
150 1 1 18.5122 4.43769 3.31347 0.00402736 0.00326063 0.00116251
1447 6 3 14.7728 4.05794 5.79855 -0.0019491 0.00326346 -0.00135326
1323 5 1 23.2127 5.31823 3.60042 -0.00271431 0.0014355 -0.00315434
1171 5 1 28.2921 5.75823 13.2458 -0.000340519 0.0015527 0.0118545
546 2 2 13.6579 0.283408 57.4284 -0.0206222 -0.00799643 -0.0113527
1487 6 1 25.9342 4.69655 6.05381 -0.00583533 0.00685493 -0.00284126
1055 4 1 31.8444 8.46141 0.239958 -0.00215541 0.00260112 -0.00330014
1416 6 4 35.2814 8.60298 8.16802 -0.00143688 0.00295 0.00703467
136 1 1 30.5768 6.11526 8.66466 -0.00642326 0.00088607 0.00691097
1612 6 1 31.9839 2.69939 10.1963 -0.00242615 -0.00434235 0.00729297
1976 8 1 32.1803 5.58562 59.9535 -0.00582025 -0.00255371 -0.000413207
755 3 3 32.8959 5.93754 2.55471 -0.00136708 0.00630087 -0.00583777
373 2 1 35.3115 3.72011 1.20612 -0.000370205 0.00402308 0.00153668
1820 7 1 43.6165 58.7586 0.408762 0.00303993 -0.00309793 -0.00433137
209 1 1 36.9757 2.16924 2.15106 -0.00668788 -0.000838253 -0.00181623
1209 5 3 43.8071 3.68286 2.86264 0.000370548 0.00332891 0.00297089
2136 8 4 43.9894 3.72177 6.7321 -0.00620604 0.000707015 0.00142734
1210 5 4 47.9255 6.20668 6.696 0.000927268 0.00366129 0.00317293
1102 4 2 42.3232 58.6314 2.64776 -0.0136226 -0.00991089 -0.000542875
1744 7 4 46.5424 5.51907 5.06567 0.00267778 -0.00369892 0.00255142
2236 8 2 44.0362 59.0889 11.4447 -0.00637601 -0.0048517 0.0206392
1747 7 1 46.1924 1.7971 3.52594 -0.00343062 -0.000834435 0.00686958
2697 10 1 52.4903 5.05975 4.38903 0.00234228 -0.00218541 -0.00113218
1121 4 2 58.7517 7.0898 5.41858 0 0 0
1109 4 2 52.5748 3.19218 1.90425 -0.00226143 0.00899269 -0.0158143
1679 6 2 55.2162 54.7963 1.16373 -0.0176188 -0.00701643 0.0147853
2803 10 2 54.9871 59.854 9.53767 0.0100082 -0.026789 0.011473
2710 10 1 5.1524 9.59352 2.06203 -0.00459919 0.00809582 -0.00094003
1359 5 2 0.329627 14.6053 5.26558 0 0 0
1097 4 2 58.3375 12.9586 57.2417 -0.00577485 4.00483e-06 -0.00670477
2250 8 2 54.3176 0.716831 3.60842 0.00496595 -0.0073282 -0.0107045
34 1 1 0.684934 7.79173 3.58796 -0.00193248 -0.00221771 0.00572091
2513 9 2 2.95383 11.3896 5.47348 -0.000210178 -0.000907588 0.00569421
2153 8 1 13.2817 12.8376 3.13291 0.00545373 0.0100758 -0.00457863
634 3 1 5.95785 9.22913 5.87688 -0.00919892 0.0119172 -0.0027015
1564 6 1 15.1925 15.9596 6.68884 0.00484226 0.00482419 0.00361713
1755 7 1 7.7764 13.7319 5.89936 -0.00196654 -0.00705772 -0.00718388
276 1 2 9.43877 5.65449 54.3966 -0.0024635 -0.009537 -0.0150048
1314 5 1 11.0094 6.42825 58.4539 0.00500187 -0.00330431 -0.00374442
195 1 1 18.3831 8.93605 5.18596 0.00535243 0.00156689 0.00433996
297 2 3 13.9138 15.0236 6.38443 -0.00382363 0.000102345 0.00303619
2304 9 1 15.4009 11.3734 3.84327 -0.00217348 -0.00337767 -0.00241023
814 3 2 15.6323 10.7373 1.81745 -0.0128076 -0.00304224 -0.00283014
1199 5 1 21.3386 14.7807 -0.0616246 0.0054822 0.00567372 -0.0142194
800 3 2 13.2439 12.7095 8.5563 -0.0103889 0.00452726 0.013927
1836 7 1 29.3122 14.6806 8.29076 0.00126789 0.00644195 0.00370583
2007 8 1 27.0827 12.2139 0.210744 0.00285036 -0.00183628 -0.0031435
1296 5 1 25.9002 9.00639 4.11026 -0.000567177 -0.00547555 -0.00325983
2420 9 1 23.4954 13.9008 6.26935 0.000146449 0.00553304 0.00481978
1306 5 3 28.1201 11.7092 3.99299 -0.000999856 -0.00522171 -0.00292227
85 1 1 21.5248 12.7654 4.02482 -0.00294896 0.00649605 -0.00534509
1023 4 1 32.4717 9.05219 3.76818 0.00013036 0.00315803 -0.00195558
73 1 1 31.1541 11.8883 7.03615 -0.00182972 0.00675018 0.00383922
1753 7 4 34.6989 8.89618 9.72822 0.00899651 -0.00272272 0.0060625
1917 7 2 42.4304 27.015 56.9974 0.0197639 0.0281572 -0.00944666
1254 5 4 36.0127 15.6259 5.65347 -0.00147271 0.00378799 -0.00342247
1757 7 1 42.721 14.6385 59.4371 0.0074861 0.00626039 -0.00777401
35 1 1 37.3627 6.86437 8.19332 -0.00281753 -0.00135084 0.00457679
1064 4 1 38.0574 12.0291 58.3035 -0.00144795 -0.00500812 -0.00452621
540 2 2 39.7037 14.7254 5.7485 0.000361693 0.00644472 0.0113246
1009 4 1 51.471 12.8264 3.84304 0.00350289 -0.00143 0.000931444
1015 4 3 46.5818 9.4765 0.549808 -0.00466441 -0.00343722 0.000273613
767 3 1 51.5003 9.39118 6.56993 0.00115304 0.000730585 0.00268217
1704 7 1 47.6037 9.04429 8.51222 -0.00121109 -0.00359619 0.00379159
1518 6 1 48.5999 8.08023 0.381642 -0.000136953 -0.00440784 -0.00402578
2043 8 1 45.4478 10.2125 4.40259 -0.00617427 0.0012675 0.000310994
1576 6 1 49.0915 10.5032 3.32878 -0.000875628 -0.00313471 0.00264497
58 1 1 50.1454 12.0331 59.6522 -0.00180145 -0.00514589 -0.00967174
2253 8 2 55.8592 12.8181 6.92145 0.000106064 -0.0121177 0.012005
1185 5 1 51.196 9.07378 2.67844 0.000630303 -0.0043405 0.00323409
26 1 1 46.8844 14.7637 2.13098 0.00123885 0.00121129 0.00271786
2740 10 1 55.0155 12.193 4.32887 0.000164033 0.00166186 -0.00166857
40 1 1 56.4942 12.1409 6.10988 -0.000737031 0.000191755 0.00313735
1336 5 1 54.8596 9.4898 0.651985 -0.00194842 -0.00122169 0.00200549
1108 4 2 1.64755 18.4561 2.13241 0 0 0
2707 10 3 2.91452 21.6147 7.30906 0 0 0
1946 7 2 1.57856 17.2808 0.833009 0 0 0
92 1 1 0.750465 22.1208 0.958992 0 0 0
2180 8 1 2.21851 24.1975 1.60663 0.00211796 0.00417524 -0.0024112
2167 8 4 2.12481 21.9329 0.958532 0.00344583 0.000631518 -0.0019876
1956 7 2 8.67825 15.5071 3.1201 0.0162611 -0.00248734 0.0237723
1987 8 1 12.3949 19.6783 8.75882 0.00646866 0.000339775 0.0056729
1146 5 1 10.5261 19.8904 2.06541 0.00468517 -0.0026089 -0.00284753
2320 9 1 13.8381 21.6645 7.794 -0.00156198 0.00631233 0.006584
2520 9 2 15.1744 20.5758 6.14844 0.00520448 -0.00242381 0.00122682
1324 5 1 16.2212 19.4757 8.24721 0.00267419 -0.00570803 0.00180213
1798 7 1 10.7113 18.9872 59.4398 0.00351538 -0.00400248 -0.00671034
2536 9 2 21.8674 28.6787 58.7651 0.000542314 0.020498 -0.0109226
1033 4 1 20.9489 19.0414 5.61108 -0.00216148 0.00439618 -0.00194372
1907 7 4 17.6359 17.077 6.2365 -0.000650276 -0.00109173 -0.00187113
2315 9 3 15.6226 15.5258 4.8749 -0.00164818 -0.00245483 0.00620332
393 2 1 17.9702 15.3824 2.02599 0.00185011 -0.00240269 0.00398486
163 1 1 34.0406 22.8157 5.88639 0.0130537 0.00301693 -0.00127376
2350 9 4 27.7355 20.7056 3.39399 0.00211913 0.00546968 -0.00103827
2263 9 1 24.0711 12.8604 7.80553 0.00056761 -0.00536314 0.00580407
1731 7 4 22.8899 18.6669 2.24965 -0.000682683 0.00586625 0.00284142
2694 10 3 38.1693 23.94 2.37976 0.0068495 0.00737694 -0.00206241
1125 4 2 31.394 18.8665 8.46339 -0.00235507 0.00364407 0.00520285
426 2 1 31.8415 15.4545 59.8184 -0.00144687 -0.0015158 -0.00501022
1357 5 2 26.7586 21.3725 8.50158 -0.00974361 0.000608221 0.00263931
2538 9 2 32.8412 23.2704 19.2609 0.00225776 0.00359431 0.0319204
895 4 1 35.5505 18.5018 3.44562 0.00135074 -0.00382256 0.00352435
1188 5 4 39.0885 14.8062 4.61685 -0.0034031 -0.000983652 -0.000701071
712 3 4 43.5636 19.7086 6.19194 -0.000931257 -0.00070206 0.00397573
2262 9 4 41.8326 16.6572 2.25945 0.00287768 -0.00521704 -0.00265567
1711 7 1 45.5457 21.528 5.46949 0.00229862 -0.00113346 -0.00361647
1301 5 1 46.4493 19.5512 59.0659 0.00185205 0.0040995 -0.00363242
112 1 3 45.6237 16.3835 4.94199 -0.00209357 -0.00511758 -0.001664
2749 10 1 50.4542 16.2535 7.52604 0.00466163 -0.00878327 0.000333606
2635 10 1 50.548 21.5101 4.85912 0.00279333 0.00106922 0.00676108
243 1 2 46.4046 23.809 58.0171 -0.023653 -0.00879402 -0.0204687
252 1 2 52.3521 22.0614 7.13362 -0.00503463 -0.0126206 0.00278153
1691 6 2 48.774 19.634 2.91223 -0.00724812 -0.00580877 -0.00965657
1684 6 2 51.9859 20.0493 6.40242 -0.0135077 0.0114056 -0.00517677
1926 7 2 55.455 21.0392 6.65019 -0.0143354 0.000399703 -3.46e-05
2150 8 1 59.6282 16.9248 3.85467 0.00696752 0.000951863 0.00111704
2137 8 1 1.22331 28.5158 3.31769 0 0 0
157 1 1 2.32865 23.8858 2.97484 0.00184791 0.000688773 -0.00764019
2411 9 1 13.1231 30.3767 3.93198 0.00342791 0.0051813 -0.000233922
893 4 1 10.6383 20.4453 7.63087 0.00654459 -0.00958467 -0.00156861
1840 7 4 9.12403 19.8811 59.0039 -0.00119693 -0.00863146 -0.00585507
98 1 1 11.8921 29.6181 5.08446 0.00111219 0.00191638 -0.00426352
752 3 1 16.0853 28.1439 6.72547 0.0126643 0.00272942 0.00966099
1960 7 2 23.4885 20.0382 9.49429 0.0163421 -0.00720773 0.00534492
1475 6 1 22.0986 30.7929 6.28538 0.00350741 0.00532869 0.00595862
1505 6 1 16.7682 28.5748 57.9284 -0.0036733 -0.00189602 -0.00474994
515 2 2 23.9933 36.6916 5.00917 -0.00892385 0.0223592 -0.00217016
1470 6 4 28.6507 28.0816 4.3149 0.000157299 0.00666301 -0.00301535
1975 8 3 23.8095 27.2072 59.6889 0.00148127 -0.000366239 -0.00129535
2051 8 1 24.6213 27.2426 1.23356 0.000311234 0.00124541 -0.00303099
2654 10 4 28.9107 19.9406 3.12465 0.00459653 -0.00981985 -0.00106804
2695 10 1 31.1429 25.5506 1.46202 0.00273279 -0.00482072 -0.00220653
1093 4 2 21.5677 33.8944 55.1219 -0.00292831 0.0162451 -0.0130791
1354 5 2 21.5691 37.7548 14.558 -0.00937967 0.0211416 0.0161095
1206 5 1 31.5406 20.883 7.37552 -0.00453145 -0.00352215 0.00360144
1817 7 3 35.6645 26.6345 2.77071 0.00193726 0.000729135 -0.00386404
2084 8 1 38.5497 24.3155 0.469978 0.00188876 0.000327803 -0.0012216
2551 10 1 50.8444 24.6516 1.69883 0.0134507 -0.000692652 -0.00286671
1130 5 1 40.0049 24.9042 7.86792 -0.00164109 -0.00414091 0.00412586
491 2 1 39.5733 25.4729 4.24257 -0.0047583 -0.00118102 -0.00483352
1555 6 1 47.0223 25.4125 0.985603 0.00912588 -0.00236201 -0.010361
844 3 2 38.3701 25.4964 4.67628 -0.00671756 -0.00602612 -0.00395142
151 1 1 43.9514 23.226 3.06296 0.000725655 0.000821068 0.00390466
845 3 2 54.1233 26.878 3.99414 -0.00694741 0.0130311 0.0100038
257 1 2 54.1588 27.7558 53.6326 0.00227286 0.0172079 -0.0127492
1113 4 2 31.7422 15.7968 2.15261 -0.0280822 -0.015484 -8.60307e-05
830 3 2 43.8164 26.2498 9.47361 -0.0110157 -0.000828647 0.0130419
63 1 1 49.7609 23.3391 6.53894 0.000395581 0.000846009 0.00427493
1578 6 1 52.6674 29.1106 3.86343 0.000955986 0.00366825 -0.00238942
2130 8 3 51.9043 26.0756 6.13348 0.00188292 -0.00095299 0.00404208
2560 10 1 51.9038 27.4501 1.10135 0.00363889 0.0019096 -0.000532922
2199 8 2 41.8536 28.8704 2.96996 -0.0216453 0.00362872 -0.00432061
1477 6 1 48.5997 27.0158 4.60255 0.00231729 -0.00120883 0.00467967
2662 10 1 54.1364 23.3046 3.48186 -0.00381283 0.00199722 -0.00269432
570 3 4 55.9063 22.9277 0.835753 -0.000324408 -0.00363398 0.00224349
696 3 1 56.2813 28.2344 7.62209 0.00136488 -0.0052766 -0.00182626
670 3 1 54.4545 29.2153 8.16598 -0.000214711 0.0032651 0.00786641
2559 10 1 55.4277 27.9585 7.00533 -0.00185025 0.00087277 0.00146627
2210 8 2 55.6637 27.0974 3.33909 -0.00771471 -0.00100809 0.0159709
2812 10 2 54.4993 27.5361 0.656835 -0.0086474 0.00190074 0.00279328
258 1 2 51.7249 31.9877 0.677411 -0.00678546 -0.0122989 0.00185747
2774 10 2 55.948 21.8529 13.5018 0.0101537 -0.000516532 -0.00238097
2352 9 4 1.74578 34.3342 2.83433 0 0 0
2541 10 1 1.55343 38.2198 3.64217 -0.00352363 0.00859929 0.00189532
794 3 2 6.05761 35.1139 6.8174 -0.00556847 0.0119284 0.00918455
2083 8 1 8.42982 33.1574 59.858 0.00703872 -0.0033933 0.00652924
1388 5 2 19.5883 29.2967 9.79105 0.0159065 -0.00197122 0.00521882
2588 10 4 9.97625 34.8923 5.26172 -0.00812997 0.00289818 -0.00321364
477 2 1 18.8845 38.7037 8.14844 0.00504498 0.00840015 0.00392313
937 4 1 24.4583 36.6647 57.3289 0.0165767 -0.000812668 -0.00606445
2576 10 4 18.7607 36.5221 6.73404 0.0014573 0.00240295 0.00546014
76 1 1 20.3076 35.9385 1.37388 -0.00317339 0.00183513 -0.00501415
1498 6 1 14.4452 28.1281 2.89521 -0.00344984 -0.00971399 -0.00427624
1994 8 1 16.7905 36.7525 4.07232 0.0013018 0.00909407 0.00638764
637 3 1 16.471 33.6416 2.73652 -0.0053248 0.000828877 0.00362394
2627 10 1 23.1406 33.0009 0.285718 -0.000568715 0.00283212 -0.00238297
1723 7 1 23.5239 32.1192 8.85171 -0.00106188 -0.000159044 0.00410569
1870 7 3 28.4181 30.8898 0.218222 0.00210708 -7.32319e-05 -0.00464344
913 4 1 24.7375 32.1613 3.34589 -0.000469136 -0.000966632 -0.00423348
2499 9 2 16.4812 29.6263 54.5313 -0.0179032 -0.0123626 -0.0204614
2767 10 2 39.4621 35.7605 48.0815 0.0225656 0.00283004 -0.0290953
1672 6 2 34.6745 34.2319 13.8975 0.0146518 -0.000770741 0.0193507
403 2 1 34.6943 33.8468 7.50518 0.000116046 0.00140184 0.00296069
408 2 4 34.6693 37.7387 5.43718 0.000149246 0.0018441 0.00298576
1010 4 1 34.1754 33.7621 6.05317 0.00109418 -0.00153452 -0.00222504
1168 5 1 38.4013 37.4325 1.3985 -0.00290809 0.00120917 0.000771523
1030 4 4 40.5856 36.5131 6.32552 -0.00418482 0.00111169 0.00128415
520 2 2 40.1569 34.707 49.8157 -0.00120201 0.000738799 -0.0224274
2806 10 2 52.0842 40.2317 58.9343 0.0165759 0.00109247 -0.00417614
840 3 2 48.9097 27.6045 55.9353 -0.0014401 -0.00631054 -0.0083186
562 2 2 41.6885 39.2987 3.94151 -0.0111573 0.0089177 0.00285068
720 3 3 49.0836 34.1557 3.02457 -0.000590156 -0.00438359 -0.00076032
1226 5 1 50.8581 31.8368 4.9303 0.000151614 -0.00105282 -0.00466796
2602 10 1 50.4423 33.3874 5.48308 -0.00312117 -0.00355193 0.0040365
2535 9 2 44.6958 38.2394 54.5727 -0.00608419 0.00575514 -0.0241382
1935 7 2 47.0719 29.5504 53.8043 0.00338758 -0.0142946 -0.0223302
1378 5 2 55.4381 36.919 3.89808 0.00748661 -0.00287839 0.00162536
2397 9 1 53.2189 34.0387 4.84136 0.00385023 0.00530847 -0.00378973
2790 10 2 52.8449 33.7706 5.76577 -0.0191248 -0.000119103 -0.00868522
531 2 2 53.8621 31.3607 1.652 0.0080953 -0.0079571 0.00591526
1522 6 3 57.9466 32.8171 9.80732 -0.00106461 -0.00227846 0.00803728
2575 10 3 56.7268 44.4798 59.8939 -0.00374893 0.00647327 0.000333178
1898 7 1 58.407 46.0661 9.8205 -0.00570675 0.007859 0.00641693
615 3 1 5.62523 42.9767 3.81793 -0.00274407 -0.00251579 -0.000455759
1397 5 2 5.38416 35.9871 4.16776 0.00676696 0.0083301 0.00522203
2201 8 2 6.55549 43.3447 0.658196 -0.00983557 -0.00168389 -0.007183
1601 6 3 7.45358 44.7442 5.35348 -0.0028719 0.00312982 -0.0108474
1407 5 2 13.8796 41.818 10.7789 0.0117314 -0.0062277 0.0193049
2578 10 1 15.1734 42.8755 6.62306 0.00101698 0.003641 0.00541801
2737 10 1 11.4547 42.7683 3.05793 -0.000106175 -0.00436956 -0.000332943
184 1 4 9.75886 42.5912 4.56442 -0.00207722 0.00353229 -0.00420141
1408 5 2 15.1882 46.4088 4.12191 -0.0105827 0.0102467 -0.000911067
2815 10 2 16.469 42.0596 6.18302 -0.00849078 0.00727586 0.00585395
149 1 4 15.3424 42.648 58.6572 -0.00293035 -0.00443107 -0.00501744
2514 9 2 25.8545 27.7912 58.2136 0.00819579 -0.0214457 -0.00458177
2687 10 4 19.1999 39.8247 6.3708 0.00088945 -0.00378977 -0.00158203
2422 9 1 18.9081 44.3176 3.16415 -0.000327056 0.00162288 0.00428522
1011 4 1 25.4865 44.155 0.473382 -6.75314e-05 5.32053e-05 -0.00271408
2238 8 2 27.1107 48.6549 58.1365 -0.00587544 0.00818727 -0.00800979
1913 7 1 28.2554 46.4145 5.20186 -4.92784e-05 0.00337686 -0.00239615
1634 6 2 16.2658 41.8045 56.8799 -0.01606 -0.00491743 -0.0137441
838 3 2 33.0381 50.1234 11.3483 0.0156908 0.0188172 0.0186761
2373 9 1 27.2314 38.1556 9.53675 0.00383071 -0.0121352 0.0110999
2754 10 2 37.7355 43.1859 2.57342 0.00297394 0.0105668 -0.000171811
1778 7 1 40.4105 40.003 7.42278 0.0100167 -0.000863325 0.00149671
161 1 1 30.6063 43.1324 9.62013 -0.000488623 0.00356739 0.00524015
32 1 1 31.1698 37.6653 7.30945 -0.0010143 -0.00370503 0.00370299
2572 10 1 36.0821 35.9296 3.17539 0.00389721 -0.00549125 0.00538392
905 4 3 41.2465 45.6713 0.625997 0.00205593 0.00837497 -0.004668
2656 10 4 42.6041 40.7387 2.79755 0.00248547 0.00289343 -0.00103673
456 2 1 39.5563 42.358 59.9302 0.000107241 0.00248239 -0.00367077
694 3 1 40.8597 44.2811 8.14589 -0.00127257 0.00271295 0.00293732
1608 6 1 37.8865 43.8136 7.67657 -0.00141673 0.00140262 0.00661541
691 3 4 42.7701 42.6863 4.48246 -0.00191389 0.000950468 0.00300495
881 4 1 41.9994 43.0204 6.44453 -0.00369495 -0.000608851 -0.000912797
227 1 2 52.0657 42.5406 3.75884 -0.0111972 -0.000633937 -0.00572405
1683 6 2 41.8538 41.5823 47.5737 -0.00410786 -0.000855692 -0.0327
568 3 1 52.6672 37.3356 6.20004 0.0011474 -0.000954745 0.00457519
1825 7 1 47.5903 41.8948 7.47401 -0.0103471 -0.00172051 0.000936944
2143 8 3 53.1123 40.7294 2.58596 -0.00249775 0.0018123 0.000211197
721 3 1 50.2503 39.316 5.22754 -0.000535966 0.00276122 -0.00314604
387 2 4 54.1232 37.1387 1.62077 -0.00173405 -0.000614469 -0.00181071
2487 9 2 58.384 41.047 0.0127171 0 0 0
2531 9 2 57.9987 42.6625 1.07508 0 0 0
687 3 1 55.1554 42.1216 4.22675 -0.00239087 0.00018315 1.31953e-05
1429 6 1 58.4105 42.8293 6.57645 0.0063051 0.00185371 -0.000570216
2712 10 1 0.851169 45.1983 1.88268 0 0 0
1557 6 3 4.54488 51.399 2.58008 0.00466073 0.00970029 -0.00186614
982 4 1 5.78583 46.5042 3.07781 -0.00971243 0.00413514 0.00108866
1623 6 4 15.6073 53.9118 57.0644 0.00512193 0.00768337 -0.00612418
2748 10 1 9.51148 51.6831 4.79049 0.00234316 0.00421903 0.00134427
1196 5 3 15.8956 50.1086 3.29484 0.00399097 0.00173336 -0.000258456
1292 5 1 11.0101 47.6441 59.1752 0.00113989 -0.000448969 -0.00755925
1737 7 1 9.14866 51.8199 4.14779 0.0036387 -0.00506575 -0.0114531
2298 9 1 8.79804 46.0128 6.1231 -0.00121299 -0.00388401 -0.0152225
1662 6 2 36.0441 57.1923 51.5126 0.0321584 0.0215501 -0.0296331
1702 7 1 17.5478 50.364 3.83348 -0.00132323 0.0031196 0.00476966
1175 5 1 31.4734 51.4267 1.92733 0.00787545 0.00103775 -0.00184259
2555 10 4 29.8063 44.7837 1.74546 0.00253283 -0.00475404 -0.00154701
1177 5 1 22.5647 53.8036 2.2726 -0.00108683 0.00857941 0.00228261
728 3 1 28.148 51.7541 0.502007 -0.00213254 0.00437015 -0.00430387
1527 6 1 21.9727 47.1513 58.4738 -0.00361537 -0.0071713 -0.00355523
1895 7 1 28.1087 45.5918 2.64853 0.000960487 -0.00528856 0.005009
69 1 1 32.1477 44.3071 7.70431 -0.00192083 -0.00474359 0.00399057
1670 6 2 30.0578 50.3696 3.86166 -0.00102696 0.00220582 -0.00246098
1857 7 1 31.4347 49.9951 4.06781 -0.00888911 0.00432374 0.00192294
399 2 1 30.8322 48.3369 57.8151 -0.00845973 -0.00271503 -0.00472666
1278 5 1 39.0594 52.7521 2.68433 0.000759517 0.00896349 -0.00430742
2651 10 1 43.6 43.3658 1.1718 0.00265519 -0.00447403 -0.000904827
715 3 1 42.6434 53.6744 0.383114 -0.000963807 0.00425525 -0.00444932
517 2 2 36.5382 41.7688 3.42438 -0.0098836 -0.00669592 -0.0013554
2008 8 1 49.6656 50.3524 3.5416 -0.00566666 0.0017475 0.0017012
461 2 1 49.6726 44.0966 8.57415 0.00177434 -0.00523832 0.00494269
1184 5 1 48.0586 49.5933 0.127548 -0.00243376 0.0042138 -0.00492098
2428 9 1 45.9628 53.3807 5.78764 -0.00372787 0.00356246 -0.000715427
9 1 1 51.4458 50.3198 5.64331 -0.000842563 -0.00141114 0.000795194
223 1 2 45.6415 43.9944 11.8242 0.0012282 -0.0111262 0.010655
322 2 1 56.2928 50.0005 2.79815 -0.00338886 -0.000510155 -0.00179187
1955 7 2 52.8903 49.6379 0.347549 -0.0102858 0.00801991 0.0321561
2147 8 1 52.9294 48.7671 0.865629 0.00315928 -0.00372387 -0.00477107
350 2 3 59.0934 45.5362 0.357337 0 0 0
525 2 2 59.6775 45.7685 0.295352 0 0 0
2798 10 2 5.84964 47.2211 57.35 0.036075 -0.0315399 -0.0203055
1536 6 4 56.0157 51.1361 59.1814 -0.00100643 -0.00280082 -0.00330672
2742 10 4 3.32111 57.1773 59.6015 0.00588644 0.00593882 0.00503928
1958 7 2 2.00117 58.4317 3.71671 0 0 0
1624 6 3 0.235656 56.1033 7.26488 0 0 0
2329 9 1 12.2261 53.1477 9.80806 0.00306414 0.000668895 0.00538137
2092 8 4 10.1252 59.5 1.82519 -0.00158211 0.00460786 -0.00113171
1143 5 3 7.09312 56.2981 7.3247 0.0118771 -0.0017238 -0.00331508
1533 6 1 13.8862 3.42672 7.78228 0.00640133 0.0131031 0.00402814
2441 9 1 10.8127 56.6548 5.39346 0.00824453 -0.000180407 -0.00217252
1934 7 2 13.4361 54.1392 1.89857 -0.000920923 -0.00347211 -0.00571686
963 4 1 12.1222 53.7217 4.6462 -0.00457331 -0.00632204 -0.00334331
2039 8 1 11.42 57.0008 3.96675 -0.000779737 0.00537611 0.00474943
1906 7 3 11.5033 53.6602 4.11001 -0.00160623 -0.00401277 0.005658
2164 8 1 17.5019 53.485 1.93868 0.00122292 -0.0029028 -0.000863109
557 2 2 18.2382 55.8656 17.4705 -0.00199863 0.00533808 0.0213001
1914 7 2 8.56528 7.60754 8.8941 -0.0180675 0.0330964 0.0127356
134 1 3 25.1205 57.2928 3.32968 -0.0014846 -0.00278576 0.00279156
2246 8 2 19.4744 3.31395 6.07449 -0.00628168 0.0147095 -0.000390068
1773 7 3 32.4422 48.5974 6.5614 0.00552353 -0.0085032 0.00432475
2036 8 1 30.2754 56.6444 9.69903 0.00205646 -0.00270862 0.00551827
1799 7 1 27.378 51.3 10.422 0.00419712 -0.00534758 0.00602017
1178 5 4 27.4451 55.8715 6.19787 -0.000539182 0.000680471 0.00256918
1039 4 4 25.1981 53.615 5.76033 -0.00184399 0.000718536 -0.00166836
2733 10 1 34.6442 59.1251 7.17668 0.00322896 0.00601855 0.000157957
1837 7 1 41.8501 56.2744 2.79099 0.00308362 -0.00388942 0.00274546
1707 7 3 41.797 57.4144 6.89843 0.00169306 -0.00424115 0.00486686
104 1 4 37.3414 54.8057 4.47976 -0.000335817 0.00364369 0.0016929
120 1 1 41.8976 0.188916 7.95268 0.000828741 0.00546372 0.00224929
608 3 1 37.9123 52.8833 1.28041 -0.00266284 -0.00263951 -0.00322911
21 1 1 36.5755 51.0768 1.66626 -0.00907294 -0.00354017 -0.00106352
122 1 1 40.7849 54.2031 1.38668 -0.00567475 -0.00419471 -0.00671987
337 2 1 49.7531 56.0828 59.3634 0.00751322 -0.00425843 -0.00517822
1569 6 1 46.1589 58.0574 7.6263 0.00165479 -0.00359581 0.00591631
2569 10 1 51.5918 54.2316 8.12429 0.00359618 0.00137511 -0.00528696
779 3 4 47.7425 56.5697 1.93352 -0.000692716 0.00554114 0.000544224
295 2 1 51.6891 0.642822 3.90276 -0.00185411 -6.3483e-05 -0.00366101
2601 10 1 50.7894 58.3102 0.0459397 -0.0020302 -0.00244576 -0.0031642
2163 8 1 52.1386 56.4942 5.69894 0.000916806 -0.00714875 -0.000613342
1421 6 1 47.0557 58.8908 59.8572 0.000562632 0.00204051 -0.00196797
48 1 1 52.1087 57.8204 0.928811 -0.00227574 -0.00586571 -0.000968999
2071 8 1 48.2855 54.2487 2.67106 -0.00478818 -0.00221002 -0.00180229
1716 7 3 47.8391 59.4395 1.24932 -0.00192183 0.00117333 -0.00573492
2367 9 1 48.4596 53.0701 1.76127 -0.00442456 -0.00190848 0.000452278
1735 7 1 47.2601 57.3917 1.20124 -0.00603797 0.000864347 0.00109861
521 2 2 49.0988 4.17102 11.0978 -0.000176154 0.0121197 0.0120784
4 1 1 52.5682 59.6298 2.9462 -0.00120514 0.000806779 -0.00191032
1971 7 2 53.1886 56.2603 9.19551 -0.00367296 0.00864878 -0.0168096
2788 10 2 0.477771 3.98095 13.9264 0 0 0
1322 5 1 7.23106 3.49655 11.5409 -0.000455198 0.00583388 -0.00489042
2717 10 1 8.30229 4.29048 16.0432 0.00261376 -0.00417378 -0.004933
2800 10 2 14.6815 8.43608 49.2927 0.0114443 0.0135399 -0.0378128
2152 8 3 16.2989 4.66243 7.41488 0.00114479 -0.00084461 -0.000680682
2752 10 3 18.1809 0.553802 13.392 0.00185426 -0.0010174 0.00182449
1291 5 1 18.5693 2.61086 9.84704 -0.00139636 0.00210452 -0.00260639
1800 7 1 29.3536 0.385134 9.51131 0.0115517 -0.00470789 0.000173731
1163 5 1 28.4173 12.2887 4.79161 0.00548049 0.0122308 -0.00620662
947 4 1 27.8324 1.48628 12.0951 -0.00239194 -0.00431383 -0.00280279
1674 6 2 21.5971 13.9261 8.89388 -0.00719561 0.0169228 -0.000781094
1062 4 2 30.0148 5.97537 10.7172 -0.00911768 0.00624007 -0.000205761
2607 10 1 39.5538 5.19044 9.50514 0.0025469 -0.000434075 -0.00201451
1618 6 1 41.1238 1.64862 7.4733 -0.0013943 -0.00474845 -0.000976361
398 2 4 45.6234 5.14024 13.8332 0.00196098 -0.00269517 0.00347069
1593 6 1 37.5286 2.47877 12.3377 -0.000793656 0.0047677 -0.000760438
238 1 2 42.4699 58.3686 29.9013 -0.000157483 -0.0103302 0.0313024
903 4 1 51.3395 8.84336 10.3298 0.000116062 -0.000151981 -0.00210545
1054 4 1 45.8543 59.1588 9.47128 -0.00528188 -0.00314216 0.00234579
2565 10 1 52.6402 0.231628 11.6607 -0.00545413 -0.0016601 0.00125499
1909 7 1 51.4208 7.2587 9.71247 0.0013705 0.00033526 0.00679274
52 1 4 44.7437 7.31448 10.6455 -0.00369642 0.0010162 -0.00394514
2330 9 4 51.1142 58.4045 3.28962 0.001118 -0.00460258 -0.0053746
906 4 4 51.0119 1.91471 10.1488 0.0024333 -0.00464448 -0.00159114
2255 8 2 47.296 57.0607 6.68475 0.0044552 -0.020484 -0.0077755
2637 10 1 47.9764 0.302821 12.3941 -0.00538727 -0.000134987 -0.00313947
1 1 3 46.4796 10.6951 10.2519 0.00165449 0.00802894 -0.00577109
1091 4 2 51.5112 3.63996 10.3546 0.00598539 -0.00414622 -0.00555685
1374 5 2 54.9575 9.1582 4.06247 0.0146735 0.0251785 -0.00841665
1098 4 2 58.4798 2.72832 7.99122 0 0 0
2239 8 2 49.8019 59.5665 14.2839 -0.0131035 -0.011275 -0.00612114
1986 8 1 6.4144 11.8347 5.24884 0.00454597 -0.00389939 -0.00574724
236 1 2 54.8843 11.0317 6.67665 -0.000465182 0.010124 0.0220469
434 2 1 10.3109 10.2396 7.68962 0.00241388 -0.00794675 -0.00118334
2059 8 1 8.95936 13.7375 10.3058 0.0122519 0.0120659 0.00380086
1433 6 1 11.67 8.98193 7.94303 0.00373566 -0.00033463 0.000653681
2440 9 4 12.8465 8.37382 10.0828 0.00157491 -0.00229006 -0.00298771
2585 10 1 9.7741 17.7103 11.9139 -0.00010252 0.00873218 -0.00222815
1334 5 1 10.462 11.2183 7.11159 -0.00514627 0.00209764 -0.00289326
462 2 1 9.32364 13.1202 12.0886 0.00776546 0.00452571 -0.0054748
804 3 2 7.34298 15.3348 3.97075 0.0117346 0.00725104 0.0118264
1069 4 2 14.3356 10.6538 6.16657 0.00894142 -0.00082249 -0.0139315
1440 6 4 20.5804 12.181 14.4479 -0.00200461 -0.0035072 4.10515e-05
1469 6 3 18.2253 6.92458 13.9218 -0.00133249 -0.00387152 -0.00167643
880 4 1 27.4865 9.50419 9.91207 -0.000478461 0.00206896 0.00478494
383 2 1 29.3578 10.6891 10.3578 0.00430615 0.00597438 0.00413539
1847 7 1 30.4814 7.63574 10.5656 0.00187405 -0.00291657 0.00346595
1483 6 1 25.8961 12.43 13.6166 -0.00112291 0.00479414 -0.00236966
225 1 2 18.5467 14.7154 6.36338 -0.0130161 0.00614444 -0.0092403
2502 9 2 27.8178 8.27501 22.5605 0.00166664 -0.00409733 0.0257569
2809 10 2 36.1281 17.2636 15.8899 0.00324482 0.00912768 0.00884452
638 3 4 29.0767 9.47393 11.9466 -0.00340751 -0.00224801 0.00499647
2126 8 1 38.0121 9.24893 21.3175 0.00654552 -0.00113945 0.0173921
2454 9 1 32.4141 14.9706 11.143 0.00255854 0.0118118 -0.0024056
266 1 2 28.9576 13.1615 2.14641 -0.00847782 0.00771315 -0.0112835
1760 7 3 34.1434 9.48513 14.0105 -0.00648168 0.00330182 0.000912053
2379 9 1 35.8515 1.05683 16.7542 0.003063 -0.0139567 0.00729416
429 2 3 29.3239 12.0546 11.048 -0.00190748 -0.00217592 -0.00333466
1085 4 2 25.8445 22.1068 2.48004 -0.0200058 0.0254615 -0.0130361
1939 7 2 45.2084 16.8343 10.3327 0.0100641 0.0131477 -0.000790251
2284 9 4 40.3525 13.9663 10.4624 0.0014386 0.00339178 -0.00179502
1698 7 4 42.5025 8.3882 7.1207 0.00152994 -0.00214731 -0.00253657
1457 6 1 35.8745 12.0018 10.384 -0.00482055 -0.00210893 -0.00273669
2480 9 2 38.786 10.4361 0.335983 0.00255307 -0.00544972 -0.02736
532 2 2 50.1826 21.467 18.0165 -0.0171082 0.00498088 -0.00777008
2617 10 1 51.8941 9.30755 9.84149 -0.00322299 -0.000628235 0.000422449
2399 9 1 51.1949 6.22805 7.29719 0.00666731 -0.00222005 -0.00437156
2105 8 1 51.4564 14.0435 8.23428 0.00165891 -0.00305843 -0.00491941
15 1 3 46.6145 9.25736 10.174 -0.00105376 -0.00110992 0.00125013
2081 8 1 48.3034 12.9824 14.4683 0.00299765 -0.00148768 0.000549244
2195 8 1 53.8417 10.0589 9.02759 -0.00142233 0.0035902 0.000211418
526 2 2 57.6423 10.2839 12.0644 0 0 0
336 2 1 59.3417 12.1997 10.0517 0 0 0
1381 5 2 50.5566 12.9528 12.249 -0.0121226 0.00759803 0.00685947
273 1 2 1.40676 16.8754 13.5764 0 0 0
2577 10 4 1.74793 18.4327 12.2029 0 0 0
218 1 1 7.58511 20.2419 14.6618 -0.00517689 0.00124108 0.00403124
2062 8 1 7.87366 17.3338 11.2929 -0.00130954 0.00276883 -0.000969809
501 2 1 11.1832 15.6243 9.84119 -0.0030701 -0.00771409 0.00270309
372 2 3 13.394 17.4919 7.52227 0.00670673 0.00391631 -0.00587045
290 2 4 6.70397 16.2233 8.0657 0.000704424 2.55984e-05 -0.010172
1561 6 1 10.2583 19.6485 10.8287 -0.00309769 -0.0014734 -0.00185657
871 4 1 12.4909 14.0172 7.87968 -0.00301322 -0.00542625 -0.00353151
2206 8 2 3.55803 16.7061 10.7016 -0.0487363 -0.0170074 0.0295509
741 3 1 10.0239 12.4185 17.3951 0.00265172 -0.0117439 0.00657695
128 1 1 20.325 20.7862 10.8855 0.00358835 -0.000587182 0.00453048
2261 9 1 19.625 14.5826 12.4377 -0.000137872 -0.00524525 0.00651823
1663 6 2 37.3146 23.6384 11.1114 0.0444874 0.0042504 -0.000973968
88 1 1 17.5758 18.3009 16.6436 0.00306613 0.00314408 0.00419269
174 1 1 21.1735 15.868 12.2419 0.01244 -0.000446961 -0.000783546
729 3 1 19.163 20.0689 3.09766 0.00810901 0.000365247 -0.0109599
1834 7 1 14.8019 14.6466 13.7947 -0.000734682 -0.00158099 0.00461356
979 4 1 19.8994 18.0186 9.74205 -0.00244981 -0.00328059 -0.00245359
159 1 1 27.8251 16.814 7.06621 0.0114357 -0.00771254 -0.00152092
67 1 1 25.0163 19.2292 14.8519 -0.00274143 0.00809243 0.00519052
2561 10 1 26.8108 19.672 11.0896 0.00242704 0.00790466 -0.000942186
1385 5 2 23.9839 32.5803 17.5257 -0.0113842 0.0216211 0.00899923
2369 9 1 23.875 21.3268 10.4501 0.00186974 0.00447397 -0.00111025
2079 8 4 28.6975 21.7266 13.9281 0.000368738 -0.000375923 8.89492e-05
860 4 1 24.4013 19.7497 9.5782 -0.00227569 -0.00438164 -0.00282811
1751 7 3 29.2326 18.8425 11.2054 0.000592474 -0.00116206 -0.00498381
2779 10 2 36.0968 33.1547 14.1154 0.00175197 0.0271057 0.00662778
2026 8 4 33.5894 17.4514 11.586 0.00347539 -0.000264218 -0.0022
997 4 1 34.0468 19.9852 9.48854 -0.00409721 0.00181881 -0.00362808
1951 7 2 34.245 26.4856 16.5564 -0.0158095 0.0131452 0.00402121
1710 7 1 41.6573 18.5635 14.3323 0.0016631 -0.00154407 0.00571071
299 2 4 40.1822 17.4771 8.53174 -9.77068e-05 0.000313619 -0.00449737
1553 6 1 41.2521 21.5426 13.6923 -0.00659171 0.004435 0.00196762
2435 9 1 48.0828 19.0675 7.81886 0.00947728 -0.00523265 -0.00213159
374 2 1 47.5361 20.7181 9.44671 0.00107428 -0.00151158 0.00253943
1646 6 2 43.7949 24.7266 16.764 -0.00623209 0.00642098 0.015881
444 2 4 48.5803 21.1524 13.8594 0.000439369 0.00725952 0.00574058
882 4 1 48.2561 17.3246 7.01002 0.00246148 0.00317807 -0.0036204
1142 5 1 48.0675 17.9877 17.1279 -0.00125363 0.00177927 0.00484205
2077 8 3 51.0215 17.3352 9.79159 0.000559594 -0.00336755 0.00164786
2042 8 3 47.923 22.6849 12.3196 -0.0024779 0.00121276 -0.00337467
505 2 2 1.29038 21.5277 11.9614 0.00766026 0.00857693 -0.00344434
2003 8 1 53.323 20.9588 12.2226 0.00865312 0.00030755 0.000206047
377 2 1 1.35365 23.422 13.25 0.00325408 0.00251158 0.00292027
1697 7 1 53.319 22.3954 11.5858 -0.00316982 -0.00198934 -0.0032681
2703 10 1 56.0004 19.526 9.65858 -6.05488e-06 -0.000518133 -0.000918794
611 3 1 59.8715 16.6897 14.7952 0 0 0
237 1 2 58.3635 20.73 11.99 0.0137476 0.00420705 -0.0126348
2583 10 1 57.8155 30.1895 5.07592 -0.00814657 0.00795852 -0.00652089
504 2 2 1.28889 28.0648 9.24249 0 0 0
1626 6 2 0.677955 23.4086 12.9437 0 0 0
1687 6 2 11.215 24.633 3.7875 0.0233576 0.00299079 -0.0222932
1809 7 1 9.01264 27.5705 16.0833 -0.00181365 0.00135887 0.00617444
2698 10 4 11.1139 29.4674 10.6496 0.000601313 0.00419241 0.000116041
486 2 4 12.3644 21.2405 13.0384 0.0015766 -0.00391837 4.37703e-05
2073 8 1 13.3898 23.3212 10.2931 0.00255694 -0.00508498 -7.98923e-05
2264 9 4 9.88181 26.7088 13.878 0.00230501 -0.000466559 0.00129862
1312 5 4 19.9521 21.0997 11.3967 0.00695546 -0.00824914 0.00332649
1874 7 4 15.5104 28.1673 12.3434 0.000232716 -0.000204223 0.00483899
2001 8 1 22.5756 22.9286 7.5765 0.00222275 -0.000508453 -0.00186207
1083 4 2 17.535 23.5641 7.987 -0.0010776 -0.00225906 -0.00386333
2478 9 2 14.3069 24.3744 11.5879 -0.0120016 0.000947634 -0.000682948
2100 8 4 21.6185 25.7081 14.2824 0.00352835 0.000757603 -0.00116435
1568 6 1 22.0938 27.9196 12.6534 -0.00146243 0.00811568 0.00666365
2011 8 3 27.4678 26.3997 17.1881 0.00289798 0.000243963 0.0148857
1689 6 2 17.7007 26.3899 18.5906 -0.0165823 -0.00158843 0.0158526
415 2 1 23.1379 27.1937 15.3872 -0.00643152 0.00402276 0.00696373
420 2 4 21.5975 29.9554 11.8431 -0.00233753 0.000302052 0.00412922
1883 7 3 25.1536 29.9786 11.0729 0.00125168 0.000163144 -0.00250201
2664 10 4 33.583 23.2366 16.1289 0.00830617 -0.00965177 0.00497458
967 4 1 27.9987 19.7347 17.9849 -0.00221484 -0.0109443 0.00669625
784 3 1 25.3148 25.5682 12.0219 -0.00413762 0.00107922 -0.00587028
45 1 1 24.877 21.5783 12.2973 -0.00261014 -0.00608423 -0.00305649
2160 8 1 31.6223 27.4466 11.424 0.00322525 0.00189915 0.000237737
1320 5 4 29.7732 28.8131 6.82432 -0.00159304 0.00503068 -0.00287889
1183 5 1 30.9117 30.372 7.18893 -1.10717e-06 0.00575973 -0.00497734
2638 10 1 35.2662 27.2124 9.83479 0.000860698 0.00152126 -0.000581762
1170 5 1 45.633 32.0427 11.8665 0.0016216 0.00503489 0.00354459
1558 6 4 52.4186 23.8987 13.5406 0.00240402 -0.00510881 -0.00102164
124 1 1 44.7845 28.0426 11.7701 -0.0026741 -0.00245097 0.00306015
508 2 2 59.6874 28.5706 9.49677 0 0 0
2232 8 2 58.4871 24.0095 8.20729 0 0 0
1997 8 1 58.8592 24.7872 9.28334 0 0 0
2797 10 2 59.2695 24.4339 10.1845 0 0 0
2022 8 1 55.9675 24.7816 12.4191 -0.00547473 -0.00218953 -0.000694931
1182 5 1 6.26719 30.6774 12.9041 -0.00343942 0.0111703 -0.0101152
558 2 2 0.125292 35.4179 12.5689 0 0 0
2344 9 1 6.85168 33.9511 14.8434 0.00576905 0.0023026 -0.00681066
1597 6 1 8.5213 31.4714 12.1151 0.00610289 0.00137492 -0.0118668
2700 10 4 1.46753 33.9178 13.4646 0.00166944 -0.00335963 0.00132986
2496 9 2 22.2802 36.4675 21.8767 0.0162351 0.0115114 0.0160953
1788 7 4 13.2496 36.9229 10.6357 -0.00158498 0.00312851 0.00417943
2113 8 1 10.9397 29.6749 10.1951 0.00474139 -0.00205427 -0.000456421
1331 5 1 11.83 37.2824 8.06458 0.00781934 -0.000382531 -0.00597873
2233 8 2 9.47615 43.6714 7.27216 -0.00097278 0.0277715 -0.00951878
264 1 2 8.96293 33.0594 16.0925 0.0149688 -0.0120095 -0.00431368
2523 9 2 11.4514 38.5582 16.9699 -0.018586 0.00646913 0.0138483
1546 6 1 20.6436 34.7444 15.2745 -0.00261272 -2.64863e-05 0.00693327
1300 5 1 25.1549 37.4517 11.1251 -0.000857219 0.00635503 -0.00205932
869 4 1 26.1183 31.6198 11.7369 -0.00143249 -0.00301082 -0.00279334
1106 4 2 27.4863 35.867 0.572011 -0.000775162 0.00682414 -0.0276968
506 2 2 28.4501 43.8013 13.8843 -0.00506699 0.0193937 0.00988042
2291 9 1 34.7523 29.8688 12.2884 -0.00366972 -0.0024495 -0.000230719
1065 4 1 28.724 31.6829 13.1593 -0.00292733 -0.0104879 -0.00227276
579 3 3 39.4463 32.8692 9.36021 -0.00242327 0.00268799 0.0020144
2715 10 1 46.4364 35.7146 15.688 0.00508178 0.00412568 0.0087548
669 3 4 47.9022 31.2813 9.25494 0.0065779 0.000263373 0.00251466
1197 5 1 38.8339 31.5152 12.5513 0.00038839 -0.00125798 0.00399751
2054 8 1 35.3912 33.4994 7.06505 -0.00619167 0.000306559 -0.00447272
912 4 1 40.9255 35.8782 11.2951 0.00167394 -0.000617173 -0.00305812
116 1 4 40.1618 33.7647 12.514 0.000833308 -0.00661804 0.00270747
1849 7 1 39.2502 32.1877 10.9141 0.0033311 -0.00780911 -0.00450772
1079 4 2 41.4939 33.2422 4.87127 -0.00256513 -0.00719227 -0.01588
2349 9 1 45.0095 31.459 15.6079 -0.00266924 -0.00290072 0.00621224
1488 6 1 49.3622 31.1727 12.9355 0.00174336 -0.000819243 0.00540233
2736 10 1 47.7681 35.7591 13.5711 -0.00399158 0.00543044 0.00397063
19 1 1 46.4928 32.0028 9.47169 -0.00411892 0.00192318 0.000380071
2430 9 1 52.1158 30.2854 9.8372 0.00496147 0.00399955 -0.00392261
849 4 1 47.4265 33.695 10.1572 -0.000782781 -0.00199078 -0.00406565
2690 10 1 51.5658 34.0256 11.7921 0.00204448 0.000143797 0.00754058
1532 6 1 54.4535 33.8496 11.8558 0.000885238 -0.000730412 -0.00848322
826 3 2 3.04824 35.513 12.9932 -0.0239821 0.0102271 -0.0087959
857 4 1 0.420839 38.6974 14.6603 -0.000987114 -0.000628377 0.0103387
2360 9 4 6.53991 43.0539 9.19616 0.00343985 -0.00300283 0.00162402
2701 10 1 0.911695 43.7344 11.8842 0 0 0
2260 9 1 2.50243 44.7196 14.1748 0 0 0
291 2 1 13.9811 36.8784 13.5053 0.00493824 -0.00654236 0.00760171
1759 7 1 13.6408 43.6285 9.93048 -0.00126949 0.002653 0.00296433
2033 8 3 14.6366 38.8965 12.4481 0.000132612 -0.00513326 0.00579748
1637 6 2 14.0285 50.9283 0.716995 0.0114034 0.0165705 -0.016307
213 1 4 7.58625 45.4704 7.95084 -0.00671571 0.00464857 -0.00395072
2804 10 2 14.868 48.2846 15.1868 0.0103516 0.0174799 0.0114823
998 4 1 13.0215 42.8979 8.81341 0.00400592 0.00426995 -0.00390482
2619 10 3 12.0019 38.04 7.03809 0.00535994 -0.00208744 -0.00516893
2146 8 1 9.55183 37.8741 3.73566 -0.00763322 -0.00409718 -0.00962005
1888 7 1 10.5538 45.1039 12.9515 0.00105691 0.00266806 -0.00208694
2546 10 4 22.7074 40.2215 7.88754 0.00108498 0.00233327 -0.000214995
1390 5 2 10.403 43.9508 14.992 -0.0163839 0.00611077 6.80341e-05
1659 6 2 27.7304 43.5949 23.4431 -0.00294888 -0.000122952 0.0230961
2396 9 4 30.6699 48.4633 7.04167 0.00153799 0.0089163 -0.00224964
260 1 2 37.5644 36.8625 5.18497 0.0172399 -0.00902043 -0.00536269
2762 10 2 35.6103 34.1542 13.609 0.0181818 -0.012573 -0.00106949
2791 10 2 20.7742 42.2341 12.2196 -0.00689035 -0.00448647 -0.00528856
2657 10 1 24.9333 41.8812 12.1484 -0.00835254 -0.0040281 -0.00326855
519 2 2 36.3173 41.511 11.5679 -0.00794264 0.00364557 0.00772131
424 2 1 38.6728 40.7035 5.3588 -0.0036183 0.00379481 -0.00445699
1455 6 1 41.697 42.0816 14.9982 0.00196894 0.000476744 0.00743683
1230 5 1 38.657 39.4821 9.54376 -0.00171893 -0.000145858 -0.00385283
1330 5 1 49.1547 39.1936 9.74071 -0.00437117 -4.09475e-05 0.000333927
2666 10 1 52.7489 39.4791 12.7255 -0.000611305 -0.00329032 0.00727469
411 2 1 49.5947 43.0001 5.72733 -0.00113781 0.00260008 -0.00374665
1851 7 1 49.8708 40.1196 14.0194 -0.00173857 0.00204774 9.39396e-05
2216 8 2 53.1258 39.9536 12.5024 0.000492425 -0.00071897 0.00387582
1590 6 1 57.7917 39.5331 12.7218 0 0 0
2553 10 3 59.7062 43.8516 11.0836 0 0 0
1621 6 1 55.1933 45.3118 11.5404 -0.00194623 -0.00281816 0.00385051
820 3 2 12.4353 58.3653 3.895 0.00945658 0.0257278 -0.00825665
959 4 1 1.70151 46.9187 7.79658 0 0 0
1988 8 1 5.02105 45.161 13.8738 0.00212276 0.00188638 0.00500077
686 3 1 11.7111 51.7683 6.04638 -0.00544505 0.00375298 -0.00587342
559 2 2 12.9164 49.6132 16.0739 -0.00268607 -0.0036629 0.00425346
1743 7 1 17.8019 54.2727 8.67558 0.00219451 0.00852722 0.00209477
1052 4 1 21.6714 43.0158 8.93902 0.00804476 -0.00749825 -0.00150307
1729 7 3 23.2273 49.0881 13.8985 0.00465369 -0.00233393 -0.00108822
999 4 1 18.8471 46.71 12.9045 -0.00105185 -0.00747013 -0.00194246
1941 7 2 16.3087 48.9789 26.6541 0.00238331 0.00524128 0.0288092
556 2 2 12.9091 50.2184 5.4371 -0.0214248 0.00970708 -0.00484685
2300 9 1 28.9156 45.6114 7.96482 0.00454369 -0.000126738 -0.0032873
968 4 1 27.4414 47.6299 6.32799 0.00859726 -0.00250035 -0.00944967
1805 7 1 24.4273 47.2202 13.6168 -0.00625777 -0.000150525 -0.00173846
1262 5 3 35.8574 47.6241 9.58472 -0.000709819 6.57467e-05 -0.00332817
901 4 1 31.3344 42.9056 17.0452 0.000784718 -0.00825458 0.00538136
176 1 1 32.6986 46.479 12.8298 0.000692873 -0.00394107 -0.00279016
1668 6 2 44.4217 40.6247 4.92944 0.0168671 -0.0187025 -0.0135516
897 4 1 46.117 51.3798 11.8345 0.00279187 0.000536772 0.00482314
1771 7 1 46.3908 46.6625 9.25863 0.00306051 -0.00405247 0.00326862
1545 6 1 44.5861 52.3832 12.4023 0.000515615 0.0103376 -0.00173129
2277 9 1 43.3815 43.645 12.7959 0.0106414 -0.00580005 -0.00178602
2086 8 3 39.5209 49.685 16.5419 -0.00434242 -0.00175009 0.00440367
987 4 1 38.0433 46.4644 7.73872 -0.00399543 -0.00459424 -0.00144043
1246 5 4 38.3525 45.8421 7.51946 -0.00182153 -0.00800252 -0.0038458
449 2 1 45.888 49.1854 11.4171 0.000728267 0.00294792 -0.00209078
1202 5 4 47.9982 51.2635 13.2069 -0.00305373 0.00132625 0.000298437
1228 5 1 52.2033 52.676 7.81521 -0.0011172 -0.00423458 -0.00120676
1886 7 1 49.9887 48.3669 13.319 -0.00404449 -0.00535554 0.00155722
2491 9 2 50.1472 45.6773 0.694331 -0.0104954 0.000485278 0.0011614
1936 7 2 55.6836 44.9849 4.78809 0.00607307 -0.0022569 0.00412794
2400 9 1 52.6001 46.9704 8.08603 -0.00419989 -0.00781683 0.00353586
1439 6 1 53.1693 48.5692 12.5992 -0.000995999 0.00341949 -0.00298257
965 4 1 57.5458 51.8668 11.5276 0 0 0
1893 7 1 11.7838 57.6663 7.49322 -0.00111856 -0.00371956 -0.00249504
983 4 1 9.27937 56.1304 12.6815 -0.00340142 -0.00606554 -0.0021286
1787 7 1 7.66696 55.4774 9.66138 0.00519783 -0.00566284 -0.000502432
1026 4 1 9.77212 54.407 9.69097 0.00758677 -0.00266409 0.000411776
2696 10 1 10.3855 55.9221 11.5614 0.000118996 -0.00100519 -0.00092808
140 1 4 19.4341 55.1309 13.8926 -0.00215665 0.00521212 0.00427835
1379 5 2 8.66103 1.10346 15.2355 0.0141635 0.0148636 -0.0156015
187 1 1 22.2388 50.2091 12.5859 0.00301455 -0.00668915 0.000129814
1776 7 1 15 55.3828 12.171 -0.00100267 0.0053029 -0.0040992
1671 6 2 25.9557 8.97313 10.8615 -0.000947243 0.0209804 0.00619727
2671 10 1 20.3387 54.3438 9.34437 -0.0117252 -0.00804072 0.000904367
1060 4 3 27.2868 59.2424 8.02286 0.00771009 0.0059245 -0.00423047
302 2 1 22.1667 48.2182 13.1845 -0.00301337 -0.0113685 0.00406059
2334 9 1 24.7304 1.10402 12.7078 0.000770181 0.00338654 -0.000197096
29 1 1 26.7155 56.6721 9.52643 -0.00158313 -0.00114186 -0.00418408
1393 5 2 41.5312 48.0278 16.5878 0.0226729 -0.0208409 0.016428
193 1 4 40.6878 58.0019 9.06927 0.0079277 0.00535787 0.0027661
1481 6 1 32.9546 54.8877 8.60471 -9.44558e-05 -0.0057035 -0.00307684
1458 6 1 38.5195 1.497 10.4885 0.00678453 0.00843387 -0.00293905
2457 9 1 34.2787 59.6726 9.83864 0.00272516 0.00139915 -0.00242538
802 3 2 37.2907 9.58297 7.39963 0.00560342 0.0223788 -0.0114038
832 3 2 55.6125 51.2924 15.3153 -0.00743088 -0.00296394 -0.033836
107 1 1 39.4431 55.8435 9.91298 -0.00280897 0.00417824 -0.000901533
512 2 2 48.9679 5.74137 15.7395 0.0233107 0.0123579 0.0063001
335 2 1 38.8446 53.4856 16.1607 -0.00205885 -0.00447619 0.00499276
284 2 1 39.9351 54.5961 14.5599 0.00047135 -0.00261492 0.00343292
1966 7 2 35.6808 58.2659 5.63116 -0.0117349 0.00565754 -0.00816616
11 1 1 42.7745 57.9173 11.0624 0.00097326 -0.00133663 -0.00519381
1386 5 2 49.5506 10.1465 12.0963 -0.00249057 0.027988 0.00387522
1591 6 1 45.93 55.657 13.2272 -0.00588536 -0.00778381 0.00316994
2296 9 1 47.1019 0.63372 12.0998 0.00190639 0.0025657 -0.00148563
1631 6 1 46.0895 0.529677 10.9809 -0.000635668 0.00192729 -0.000821482
2504 9 2 52.3299 52.0465 7.98988 0.00374109 -0.0140783 0.000467712
1651 6 2 55.4187 55.4555 10.2131 0.0104583 0.00787557 -0.00358295
1372 5 2 52.1739 56.0572 10.8759 -0.00161173 0.0057479 -0.00694458
83 1 4 53.565 53.5056 9.54337 0.0020414 0.00283693 0.00197584
2705 10 1 54.6903 54.0387 13.5989 0.000802497 -6.97482e-05 0.00458437
2089 8 1 57.1728 59.7158 10.0458 0 0 0
1627 6 1 57.7021 53.0184 11.7168 0 0 0
2721 10 1 59.132 55.4719 12.4388 0 0 0
2140 8 1 58.5751 53.005 11.289 0 0 0
1944 7 2 55.023 55.9847 10.7609 -0.00764537 -0.00154073 0.00665408
1932 7 2 0.411536 0.415793 1.29215 0.0123932 0.0213961 -0.00603601
1653 6 2 56.29 54.5391 7.30625 -0.0136627 -0.0204573 -0.00193813
2777 10 2 5.6523 6.60358 15.3148 -0.0175458 0.00420801 0.0180973
926 4 1 6.7659 6.20449 15.1641 0.00435809 0.00957599 0.00217789
50 1 4 1.64431 5.18743 18.2259 0 0 0
2124 8 1 0.943841 7.35431 20.4733 0 0 0
1049 4 1 2.69652 2.70796 21.9584 0 0 0
2252 8 2 0.123491 1.86645 15.2008 0 0 0
864 4 1 7.03458 4.18524 19.4228 -0.00515867 0.00269853 -0.00139422
1513 6 3 1.56538 7.5629 23.3771 -0.00403935 0.00438708 0.00196601
1002 4 3 57.5706 1.75747 19.177 -0.00763806 0.00336334 0.00223237
70 1 1 4.64415 59.7284 18.6475 -0.0043687 0.00264507 -0.0105919
2469 9 4 7.89604 0.16109 20.6752 0.000344883 -0.00194811 0.0038796
2123 8 4 10.8875 59.3778 20.2071 -8.1796e-05 -0.00213989 -4.89204e-05
607 3 1 16.7431 11.2451 15.2362 0.00777312 0.0109788 -0.00155802
280 1 2 19.9709 4.26507 32.5007 -0.00211841 0.00698414 0.0290049
1617 6 1 16.1328 3.40414 19.5841 -0.00454909 0.00332389 0.000337341
2811 10 2 17.6894 55.8565 24.9794 -0.0141198 -0.0229974 0.0107542
2719 10 1 24.1231 0.403033 16.232 0.00187935 -0.000979062 0.000986268
2408 9 1 23.9601 2.15166 20.5676 0.000487479 -0.00413658 -0.000458982
1673 6 2 26.3904 59.5904 16.0817 0.00732393 -0.00710881 -0.00884142
626 3 1 34.2548 10.1259 17.1896 0.00499944 0.00635919 -0.00191059
1252 5 1 31.3303 7.3295 21.5321 -0.00216422 0.0025586 0.00626574
1846 7 1 36.9942 1.64351 20.1696 0.00281616 -0.00355913 0.00481967
938 4 1 29.7982 58.6682 16.8681 -0.0045424 -0.00498017 -0.000564106
2310 9 1 31.9896 5.81855 16.3488 0.000256084 0.00411394 -0.000635225
1375 5 2 32.0656 11.0512 23.4783 -0.00746641 0.0223968 0.00526813
593 3 1 39.1584 4.81934 21.0095 0.00584805 0.00723631 0.00550486
2270 9 1 46.0523 4.77106 21.7022 0.0078552 0.00403753 0.00929303
2626 10 1 48.829 4.8409 18.6226 0.0137005 0.00244111 0.00269768
1835 7 1 43.9677 59.1994 21.3338 0.00328956 -0.00346235 0.00538157
221 1 1 41.9303 6.09702 22.3515 -0.00288582 0.00349001 0.00578025
782 3 1 40.1731 4.08311 13.7793 -0.00213918 -0.00170025 -0.00547076
1273 5 1 43.9621 2.98938 18.3196 0.00109428 -0.00558168 -0.00226445
1478 6 3 46.2953 4.29407 20.0334 0.00186818 -0.00428212 0.00661499
1924 7 2 46.0456 59.3767 21.3236 0.00199048 -0.00434897 0.00515621
84 1 1 50.0089 4.20891 18.482 -0.00142131 -0.00245763 0.00298769
2594 10 1 50.6516 0.341438 14.5133 -0.00580828 -0.00301323 -0.0105879
2789 10 2 56.0999 1.44163 10.5606 0.00948188 -0.00138134 0.000466012
1682 6 2 47.8618 2.74013 10.8333 -0.0200872 -0.013806 -0.0106927
511 2 2 54.2278 5.00814 16.4927 0.00116346 -0.0133439 0.00972035
2074 8 1 57.7204 59.5593 16.6809 -0.00444623 -0.00407072 0.00341104
1523 6 1 57.2874 8.24188 17.4705 -0.00332238 0.00543739 0.000962255
2725 10 1 59.0802 0.987784 15.5295 0 0 0
610 3 3 58.764 7.25621 16.8172 0 0 0
317 2 1 54.3621 1.39896 19.174 -0.000549902 0.00151149 -0.000663862
2713 10 1 56.8899 5.46573 18.0288 0.000536982 0.000428273 -0.00296326
2223 8 2 57.5365 2.16673 16.6968 0.00444678 -0.0221348 0.00503322
2596 10 1 5.41392 6.02224 13.9127 -0.000748973 0.00400096 -0.0103044
2709 10 4 6.00548 10.4368 22.5599 0.00182756 0.00816919 0.00105212
214 1 3 2.38546 13.2716 15.4246 0 0 0
2121 8 3 0.453045 13.706 22.0152 0 0 0
2082 8 1 1.27319 12.9536 16.9868 0 0 0
2032 8 1 2.71163 10.7487 21.0626 0 0 0
334 2 4 0.247983 14.6843 22.3362 0 0 0
2175 8 1 59.3064 15.0427 20.1209 -0.0100476 0.00238893 0.000555156
698 3 3 6.31796 13.4456 20.6202 -0.00283669 0.00258206 0.00960777
1732 7 1 10.3974 11.7794 23.1008 -0.00263088 0.00504872 0.00537758
2382 9 4 15.2976 11.0229 19.5251 0.00130885 0.00484584 -0.000677057
405 2 1 8.56129 14.0989 15.2614 -0.00440526 0.00255292 -0.00573009
2365 9 1 13.8016 12.1026 23.6841 0.00765408 0.00441188 0.00244249
1604 6 1 15.9364 12.6057 20.2591 0.00716536 0.000982207 0.00250653
636 3 4 10.8105 11.8467 18.3166 0.00103337 -0.00336625 0.000361208
908 4 1 21.2087 16.841 19.8461 -0.000709768 0.0046948 0.00593202
604 3 1 16.8863 12.6605 19.2035 -0.0054221 0.00813766 -0.0020238
1816 7 1 21.9292 10.8238 15.0712 -5.59736e-05 -0.00130443 -0.00219197
822 3 2 19.8045 13.0537 13.7922 -0.0040086 -0.00154484 -0.00405011
1100 4 2 13.5152 13.7967 10.4685 -0.0042357 0.0121842 -0.0187454
2311 9 1 23.3119 6.59291 19.8364 0.0143376 -0.00258711 -0.00276188
1358 5 2 31.6269 8.34971 15.0078 0.00566994 -0.000310797 -0.00159744
2665 10 4 23.9991 14.4813 22.8872 0.000651077 -0.000330093 0.00143335
1020 4 1 24.3396 6.16374 22.6906 -0.00065205 -0.0053451 0.000563418
99 1 1 23.4386 18.3063 14.7745 -0.00244419 0.00693537 -0.00484673
59 1 3 26.7108 7.13628 20.3686 -0.00254683 -0.0010209 -0.00180658
1745 7 1 28.1467 6.26937 18.2715 0.0045272 -0.0045939 -0.00518329
1525 6 1 35.9238 10.6178 19.377 -0.00185829 -0.00389216 0.00720146
1922 7 2 32.7324 8.1691 33.9687 0.000678322 -0.0114819 0.0234484
2278 9 1 33.3882 11.1627 19.4039 0.000815624 0.00285956 -0.00083295
2633 10 1 31.3984 12.8136 19.1729 0.000370448 -0.000222452 0.000401859
1437 6 1 34.1152 10.4081 16.8096 0.000102031 0.00391121 -0.00765912
459 2 1 31.3186 13.1307 17.6706 -0.000755516 0.00658115 -0.00952792
1317 5 1 32.9188 16.0385 16.6651 -0.00111229 0.00323766 -0.00943838
917 4 1 43.1626 11.7191 22.6558 0.00162248 0.00461028 0.0062417
1521 6 1 39.3269 10.925 18.3145 -0.00147722 0.00389386 -0.00133753
1434 6 3 44.1851 7.56583 18.5671 0.00114921 -0.00443016 0.000612409
2716 10 3 39.7234 13.2386 21.2366 -0.00324376 -0.00257711 0.0037828
953 4 1 50.93 10.1306 18.8892 -4.97328e-05 0.00412964 0.00635224
2820 10 2 50.1884 10.1712 18.1734 -0.0295834 0.000818216 -0.000278322
1897 7 4 48.716 8.07248 20.9788 0.00400053 -0.0026134 0.00759704
2769 10 2 28.4477 10.8508 17.5342 -0.0349905 -0.00768215 0.00344181
269 1 2 43.3828 18.9084 21.7483 -0.0036767 0.0142344 0.00463526
1192 5 1 50.2727 13.7554 21.8954 -0.00481918 -0.000423082 -0.00311928
1810 7 4 49.1078 10.4799 20.726 0.0033125 -0.000709752 -0.0012696
482 2 3 51.572 14.1583 19.7679 -0.000518362 0.00394118 0.000578283
855 4 1 47.8152 10.5462 21.5773 0.0004547 0.00235843 -0.00149557
2667 10 1 54.7988 8.32407 16.9054 0.00596419 0.000343468 -0.00571805
2060 8 1 56.5213 15.5981 18.7104 -0.00148136 -0.00059866 0.00102562
1123 4 2 58.0877 8.14609 21.012 0 0 0
2015 8 1 58.5482 10.0214 18.4905 0 0 0
1881 7 1 55.0915 12.876 18.4194 0.00598436 0.00311966 -0.000136285
145 1 1 4.2844 19.509 15.3247 0.00100874 0.00479552 -0.00624969
2363 9 1 9.34246 18.2627 21.1362 -8.24714e-05 0.00404569 0.000969629
630 3 1 9.23071 19.7819 13.7856 -0.00621724 0.00747025 -0.00260846
27 1 1 16.9097 20.8721 16.9999 0.0047586 0.00514267 0.00119286
2453 9 1 12.7109 20.2651 17.185 0.00110065 0.00379355 -0.00179433
2133 8 1 16.3512 24.1793 18.554 0.00328762 0.00574869 0.000120321
2751 10 4 13.7241 14.6405 21.0203 0.00215792 -0.0011922 0.000831366
2014 8 1 18.7998 14.2122 22.3609 0.006267 -0.00620155 0.00555899
2615 10 1 16.7864 21.3844 18.3086 0.00281273 0.00100268 -0.00192153
1430 6 1 17.0374 13.5253 18.271 -0.00291341 -0.00384049 0.0006804
1660 6 2 30.2089 37.7518 16.5263 0.0287004 0.0442507 -0.00479562
246 1 2 28.9777 39.3341 10.131 0.0226 0.0369724 -0.0203689
1667 6 2 38.7506 13.4608 8.17691 0.040394 -0.00912394 -0.021433
1451 6 1 29.7081 14.8944 20.6508 0.00519697 -0.00595877 0.00776999
948 4 1 31.2719 22.8133 19.2876 0.00451882 0.00834622 -0.00274669
1446 6 1 30.2707 16.5404 16.5595 0.00804311 -0.00356525 0.00141631
896 4 4 26.3154 25.3889 18.1364 0.00495163 0.00733748 -0.00176167
2165 8 3 26.4227 19.9231 18.8941 0.00227423 0.000507351 0.00137095
742 3 3 27.1806 12.2905 14.6625 -0.00182445 -0.00895261 -0.00339673
250 1 2 26.3373 11.6232 18.9301 -0.00710038 -0.00721341 0.00184491
868 4 1 27.6774 18.811 20.8615 0.00792385 -0.00405219 0.00418654
1681 6 2 28.989 15.6108 15.2768 -0.00806938 0.000653841 -0.00457783
464 2 4 30.4917 24.4948 16.7128 -0.000875372 0.00802264 -0.00203562
1501 6 1 33.3467 22.7763 14.7807 -0.00410971 0.00129213 -0.00148933
2768 10 2 41.4258 17.4712 6.01746 0.0182321 -2.46566e-05 -0.0241021
135 1 1 30.4421 13.8573 20.5717 -0.00537985 -0.00402632 -0.00241984
62 1 1 39.5023 18.6176 16.1844 -0.0029923 0.00678081 -0.00144639
488 2 1 37.5693 18.1544 17.0854 -0.00521938 0.00375384 -0.000294719
206 1 1 45.7145 18.2177 23.7636 0.00250527 0.000548098 0.00447408
1112 4 2 40.039 14.7948 21.6514 -0.00411953 -0.0132473 0.000161903
2488 9 2 53.0359 17.2248 10.1811 -0.00986588 -0.0208461 0.00369287
446 2 1 47.5117 19.877 25.2872 -0.00155903 0.00539801 0.00828892
1179 5 1 43.6691 16.1141 14.567 -0.00359357 0.00113138 -0.00485376
2722 10 4 48.941 13.8519 23.4828 0.00557146 -0.00698294 0.00210238
924 4 1 47.2309 18.1746 22.4187 -0.00186859 6.43984e-05 0.0038225
2632 10 4 52.3244 16.3327 19.0573 -0.0005223 -0.00533538 -0.000514989
2243 8 2 37.7608 21.9567 10.5678 -0.0153558 0.00544111 -0.0100622
2410 9 1 47.5868 15.8403 20.0125 -0.0031086 0.000248669 -0.00236331
1574 6 1 51.505 17.0122 18.7141 -0.00130063 -0.000414451 -0.00165876
1349 5 1 1.60747 17.6787 16.802 0.00398893 -0.0024445 -0.000607869
1832 7 4 53.0389 20.6982 17.0085 0.00145108 0.00451124 -0.00471753
2040 8 1 54.7109 18.6318 16.4703 -0.00200198 -0.000435307 0.000426801
1436 6 1 52.8796 19.0556 19.545 -0.000733363 -0.00433293 -4.71727e-05
1075 4 2 51.1296 19.3212 14.9934 -0.0231416 -0.00110445 -0.00549156
281 1 2 49.8854 23.7484 17.5631 -0.00975228 0.0141409 -0.00845028
2129 8 1 0.401227 24.7699 17.8561 -0.00419889 -0.00163012 0.0052028
1309 5 1 4.53993 25.9089 17.8571 -0.00213712 0.00854922 0.00153427
2741 10 1 4.6955 23.1154 20.425 0.000283173 -0.00774249 -0.0113728
1991 8 4 1.84768 23.7348 22.1494 0 0 0
251 1 2 2.90608 28.42 19.2691 0 0 0
2426 9 4 7.72778 31.1021 23.7079 -0.00399925 0.0117509 0.00153196
318 2 1 5.09412 26.175 19.2259 0.000995561 0.00411451 0.00319667
2220 8 2 10.8755 39.7298 22.4691 0.01164 0.0248911 -0.00711501
1749 7 1 8.91177 20.4143 20.9727 -0.00476521 -0.0076462 0.00375417
2723 10 1 14.5209 29.9594 17.8947 0.00172775 0.00229906 0.00146123
1231 5 3 14.6498 23.9643 16.4781 0.00129514 -0.000748875 -0.000125301
2048 8 4 16.4653 30.6984 22.7298 0.00442874 0.00165279 0.00252269
1090 4 2 10.8808 30.9081 20.3137 0.0115725 0.0158273 -0.0043813
130 1 1 9.76233 19.5118 20.6855 -0.00331396 -0.00801817 -0.00330087
1395 5 2 21.4402 18.9964 28.1117 -0.00145757 -0.0198351 0.0162129
2325 9 1 16.0895 25.2628 17.8619 0.0021154 0.00066361 0.00263311
2135 8 1 19.3498 28.2913 15.2562 0.00150517 0.0024783 -0.000809972
2128 8 1 18.3002 29.7113 16.1449 0.000803487 0.00251404 -0.000709483
2432 9 1 16.7148 21.9006 19.1381 -0.000179632 -0.00184832 -0.00193893
1164 5 1 15.4074 21.6267 17.6338 -0.00248235 -0.00465138 -0.00332989
1120 4 2 14.6288 25.7892 8.62897 -0.0173054 -0.00393308 -0.0236088
2650 10 3 36.875 24.5042 20.3556 0.001654 0.00090816 0.00154608
142 1 1 33.8929 27.5492 13.4389 -0.000410542 0.00145083 -0.00343215
1600 6 1 32.9779 24.324 19.3845 -0.0038315 0.000501234 -0.000197819
2688 10 1 44.5051 26.5825 19.3055 0.00763163 0.0040254 -0.00134164
36 1 1 40.3427 23.0495 20.4926 -0.00667639 -0.00231764 -0.000809203
1461 6 1 46.2318 25.1117 17.8553 -0.00466417 0.00279558 -0.00310803
2571 10 1 51.0999 26.0503 18.6409 -0.00103882 0.000957374 0.00214965
1993 8 1 47.487 30.2659 21.1285 -0.0012951 0.00417526 0.00123683
1899 7 1 48.2928 28.4762 22.3506 -0.00312524 0.00241521 0.00563828
1426 6 4 46.7431 22.2933 20.6786 0.000797479 -0.00296196 0.00088594
617 3 1 51.931 27.9869 22.12 0.00226762 -0.000875313 0.000346817
1862 7 4 48.4942 25.1233 20.9635 -0.00470628 0.000484621 0.00179445
645 3 3 52.0562 25.1418 22.0049 -0.000593855 -0.00142502 0.00425463
2207 8 2 54.1241 21.8238 16.7121 -3.45888e-05 0.0084037 -0.0217946
2714 10 1 55.4696 27.8999 20.5866 -0.00275271 0.00212349 0.000627239
2087 8 1 54.9607 26.8355 18.6063 -0.00484026 0.000222675 0.000436991
1118 4 2 58.2709 28.7148 15.4501 0 0 0
425 2 1 57.3027 24.2635 19.9376 0 0 0
2597 10 3 56.5765 28.721 16.6115 -1.64397e-05 0.00307454 0.00159433
528 2 2 0.416205 33.6262 21.0923 0 0 0
2182 8 1 1.47715 35.267 20.3514 0 0 0
1985 8 1 56.0767 39.8725 17.3084 -0.00420857 0.00560817 -0.000666818
2002 8 4 2.28369 35.0732 17.7602 0 0 0
1057 4 1 4.69287 33.2534 17.8653 0.00963168 -0.0184356 -0.000834211
2631 10 1 7.88732 34.7954 16.3533 0.0111615 -0.001125 -0.0121248
1978 8 1 1.70381 33.0374 18.8616 0.00324284 0.000792063 0.00285666
1902 7 1 59.1473 33.119 20.6669 -0.00486928 -0.00805717 -0.000784212
1384 5 2 18.313 46.063 28.4091 0.00858923 0.0212712 0.015333
278 1 2 13.7265 30.3926 22.8519 0.00642072 -0.0128695 0.00979927
2154 8 1 12.9238 33.6675 16.4717 0.000781968 0.00297167 0.000677426
1826 7 3 13.2913 30.511 13.1846 0.0035676 -0.00908068 -0.00619639
1365 5 2 16.1308 23.7504 25.595 0.0281017 -0.0201466 0.00785085
1077 4 2 56.4285 34.2338 19.0841 -0.0368722 0.00228539 0.00353925
565 3 3 12.8105 35.7812 19.9428 -0.00779142 0.00398412 0.0011144
2604 10 1 18.4574 37.3835 14.8405 0.00020258 0.00393593 -0.00123967
2337 9 3 18.5326 33.1736 22.116 0.000110087 -0.000506721 0.00124213
274 1 2 35.598 32.9306 21.4608 0.0271164 -0.00840705 0.00603347
2584 10 3 24.3594 38.045 20.2007 0.00199418 0.00343707 -0.00102417
2339 9 4 27.5303 36.6409 18.7207 0.00144017 6.27833e-05 0.000529966
358 2 1 27.0556 36.8668 14.1124 -0.00232579 0.00047757 -0.00372582
2753 10 4 25.6594 35.5039 13.1382 0.00163885 0.00168412 -0.00658145
2118 8 1 28.724 33.3749 15.3267 0.00202947 -0.00568215 -0.000556178
2028 8 1 28.5168 31.7631 13.7399 0.00245463 -0.00618119 -0.0100123
500 2 1 29.7986 31.5994 18.2208 -0.000898988 0.00221619 0.00376544
723 3 1 29.5592 37.0757 23.4088 -0.00196717 0.0021097 0.00686504
1211 5 4 32.8982 30.8908 15.4616 -0.000988238 -0.00108189 -0.00305739
1024 4 3 26.4216 38.5636 19.8617 -0.0078296 0.00419936 0.00050143
2544 10 4 38.3571 31.5543 20.2279 0.00311881 -0.00731809 0.00108265
1920 7 2 42.9181 39.8235 10.6983 0.0136912 0.0179069 -0.0131668
769 3 4 29.6056 37.8504 20.1431 -0.00198113 0.00284778 -0.00430812
2190 8 2 39.0753 35.1912 21.1189 -0.00638594 0.0105726 0.00740193
944 4 1 39.8047 33.2482 21.3072 -0.00241844 -0.00121098 0.00429033
25 1 1 42.6237 36.08 17.8603 0.000468621 0.00417387 -0.00335329
990 4 1 42.3237 29.2058 19.3545 -0.00210051 -0.00213222 -0.00499434
1828 7 1 48.4022 33.7992 15.4053 -0.00401014 0.0022597 0.000160652
1894 7 1 50.6431 33.2439 15.7317 0.00416402 0.000854648 -0.00118497
2023 8 1 51.7043 33.5163 16.4799 -0.0022222 0.00193747 0.00151383
1854 7 4 48.1266 37.1803 18.7443 -0.00689347 0.00391917 -0.00145393
1029 4 1 43.4358 34.3619 18.5492 -0.00502706 -0.00284183 0.00148354
702 3 4 44.6122 36.7612 17.992 -0.000890911 0.00156989 -0.00321973
65 1 1 53.9409 36.9897 15.206 -0.0016275 -0.00288855 -0.00375221
1949 7 2 55.5931 36.9336 13.2302 0.0266054 0.0142801 -0.00953325
1638 6 2 57.8749 33.9778 18.632 0.0171803 0.0138623 -0.0121362
1514 6 4 52.7832 30.6099 15.3887 -0.00339247 -0.00135057 0.00121595
423 2 1 54.8075 33.2221 16.5003 0.00632086 0.0032191 -0.0055685
1586 6 1 54.3483 35.288 18.2481 0.00552261 0.000737714 0.00463959
1543 6 1 57.962 31.277 21.3382 0 0 0
1537 6 4 53.7799 36.7077 20.6749 -0.00466009 0.00634666 0.00137008
856 4 1 57.9699 36.355 22.4343 0 0 0
1526 6 4 1.34216 32.5609 15.3752 0.00294204 -0.00505421 -0.00358715
2784 10 2 53.0703 43.4341 17.7064 0.00932063 -0.0100516 0.00291758
1056 4 1 0.903568 41.3577 22.179 0 0 0
1140 5 1 2.64434 43.4376 21.9976 0 0 0
487 2 4 6.83956 40.3104 19.0466 0.00436498 0.00212304 -0.0079218
680 3 4 56.7934 40.6124 22.6255 -0.00259897 -0.00118137 -0.00226069
1031 4 1 2.76306 40.392 18.6377 -0.00271405 0.00432581 0.00695309
1622 6 1 5.1616 41.722 17.9867 -0.00183489 -0.00202339 -0.0068285
1453 6 1 6.25455 45.4778 21.712 -0.00767674 0.00307416 0.00151201
1103 4 2 10.541 50.0436 24.6646 -0.00372467 0.0167373 0.00739767
2672 10 3 15.1495 46.5337 14.3614 0.0019044 0.0099486 -0.00382379
2693 10 1 7.57259 42.2752 18.3546 -0.00962064 -0.00429088 0.0041665
2085 8 1 11.2214 38.4526 20.3341 0.00156586 0.000387984 0.00305175
2289 9 1 12.7995 41.7994 19.1779 0.00820672 -0.00340874 -0.000560562
1887 7 1 10.1883 46.1017 18.3499 0.00141529 0.00846442 -0.00364214
1853 7 1 8.98232 42.9478 13.5858 -0.000469864 0.00295019 -0.000827466
293 2 1 16.7444 41.4233 17.4188 0.00447457 9.43865e-05 -0.00780274
2010 8 1 19.2963 37.9314 20.6151 0.00185498 -0.00612687 0.00749214
2141 8 1 16.1202 42.1039 25.3538 0.0011531 0.00461826 0.00897918
1625 6 4 16.9568 37.7853 22.8347 -0.0048643 -0.000214894 0.00122049
738 3 1 15.4151 39.154 24.6701 -0.00331345 -0.005234 0.00641015
2193 8 1 16.5452 40.0854 20.1671 0.000316295 -0.00674995 0.00188335
2639 10 1 22.0057 40.7718 17.1806 -0.000978434 -0.00457082 0.000666208
816 3 2 16.1673 35.4033 12.1127 -0.0109884 -0.0158021 -0.011174
2375 9 1 34.1865 36.9548 17.7263 0.00914281 -0.00483577 -0.000926805
375 2 1 24.1405 44.7397 21.2497 -0.0017646 0.0016005 0.00409462
785 3 1 28.0111 40.5958 24.1761 -0.00365679 -0.00488096 0.00361282
326 2 1 30.1753 39.8508 18.6013 -0.00318969 0.00240477 -0.00272889
1235 5 1 34.795 38.7344 16.2735 -0.00247986 -0.000463147 -0.00271059
1538 6 1 31.3515 37.3574 15.9281 -0.00182486 -0.00795661 -0.00101212
2738 10 3 46.0913 44.1649 21.8868 0.00444911 0.00363825 0.01021
1214 5 1 44.677 38.5765 22.4876 0.000210533 0.000144601 0.00550488
390 2 1 41.0377 42.4317 18.6468 -0.0029099 0.00442074 -0.0017537
1556 6 1 44.1791 39.6394 21.9492 0.00109068 0.000961922 -0.000290913
2024 8 4 43.6255 39.6785 19.3107 0.00449887 -0.0057158 -0.00148245
385 2 3 38.1019 45.2584 16.6166 -0.00324586 0.00503268 -0.00755861
774 3 1 50.596 37.1114 18.3216 -0.00150446 -0.00352816 -0.00106495
2348 9 1 52.5292 40.4679 18.1085 0.00167089 0.000861087 -0.00239613
2088 8 1 59.046 39.6167 17.9419 0 0 0
2158 8 4 59.1242 40.981 21.2774 0 0 0
533 2 2 59.9009 44.6245 19.5338 0 0 0
971 4 3 58.7693 37.9832 22.3454 0 0 0
2772 10 2 57.3891 41.0964 22.2769 0.0139726 -0.00201844 0.00238914
2763 10 2 56.6136 38.6395 16.6684 -0.00911994 0.00431204 -0.00238275
1448 6 4 0.118615 41.4847 17.8525 -0.00687946 -0.00901559 -0.000392449
2493 9 2 1.02646 47.4393 20.4181 0 0 0
2333 9 1 2.3898 50.7251 18.4505 0 0 0
457 2 1 0.94647 51.939 18.892 0 0 0
652 3 1 1.17153 45.4897 22.2633 0 0 0
1695 7 1 8.60784 48.6707 17.8022 -0.00135402 -2.34767e-05 -0.00475376
588 3 3 16.7383 49.7763 21.1594 0.00521614 0.0089861 0.00499486
1459 6 1 9.74802 54.6731 17.7563 0.0032843 0.0117367 -0.00536526
2460 9 4 8.01798 46.8244 22.0443 0.00499054 0.0106917 -0.00486145
2269 9 1 11.9593 51.8648 22.2757 -0.00157742 -2.86953e-05 -0.000271638
1119 4 2 9.33157 46.2746 10.8402 0.0139974 -0.0266526 -0.017541
1656 6 2 17.1099 54.4651 25.8014 -0.00310001 0.0176996 0.0146715
2540 10 1 22.2119 48.3382 20.7419 0.000823981 0.00307749 0.00147839
1764 7 4 22.0215 51.3226 22.4697 -0.000381403 0.00399234 0.00461583
1841 7 4 21.0296 53.1513 14.8736 0.00339478 0.00464506 -0.00577194
585 3 1 24.4753 50.0263 16.2529 0.00422681 0.00106992 -0.00584491
2603 10 1 19.2778 50.3647 18.8389 0.000163709 -0.00227151 -0.000986542
1998 8 3 17.3081 49.4015 17.4193 0.00147602 0.00302993 -0.00825276
818 3 2 20.7614 55.9807 22.6998 -0.00451941 0.012314 0.0122774
1128 4 2 33.7148 48.7458 18.0521 0.0171598 -0.00695461 0.0048795
328 2 3 23.6111 47.4313 13.6449 -0.00411692 -0.00483103 -0.00317829
153 1 1 26.7376 52.2327 20.1963 -0.00150445 0.00470289 -0.00163649
431 2 4 25.2614 52.726 19.3232 0.00556666 0.00375641 -0.00453225
143 1 1 32.5189 48.7639 15.7238 -0.000733883 0.00401559 -0.0029967
972 4 4 35.7999 48.5123 13.1017 0.00926448 0.00175529 -0.00488879
991 4 1 37.6456 46.8114 19.3903 0.000866085 0.00079298 -0.00122622
1268 5 4 35.4646 45.9196 14.5874 -0.000644057 -0.000446586 -0.00267714
166 1 1 36.6524 45.886 16.0474 0.00739793 0.0013949 -0.00927016
1422 6 1 35.7543 48.6254 15.5714 -0.000999555 0.000844987 -0.00790795
1198 5 1 39.0292 48.8635 22.6335 -0.00275765 0.0027101 0.0063744
2272 9 4 45.0802 48.0778 20.8063 0.00270135 -0.000596428 -0.000392632
47 1 1 38.9193 46.5066 20.0504 -0.000960764 -0.00299792 -0.00194849
2708 10 4 43.116 47.1681 17.6561 -0.0033984 0.000553659 0.00267804
2234 8 2 50.0913 49.237 11.4564 0.0198981 -0.000799922 -0.0184246
2356 9 1 43.1528 50.1952 16.4082 0.00418305 0.000733494 -0.00734278
41 1 1 46.2855 45.015 18.5132 0.000477664 -0.00273693 0.00572923
90 1 3 45.0212 46.2902 20.89 -0.00252941 -0.001792 0.00168826
2611 10 1 54.014 49.9704 18.5454 0.00322997 -0.00361703 -0.004845
2045 8 1 44.0319 49.0365 20.5505 -0.00475707 -0.000107967 0.00189534
1105 4 2 38.1259 51.2583 13.9973 -0.0193745 0.00422262 -0.00900498
1708 7 4 52.9677 46.0208 22.3907 -0.00231231 0.00338012 0.0025201
2507 9 2 48.7186 44.3059 13.614 -0.00406956 -0.0167159 -0.0110081
271 1 2 43.2059 36.6564 23.6293 -0.00821481 -0.0207332 0.00410131
1070 4 2 39.7879 46.9513 14.052 -0.0113828 0.00132851 -0.0104087
1468 6 1 44.7218 47.0762 21.8385 -0.00202058 -0.000354272 -0.000712017
2394 9 4 55.5151 47.5047 18.7273 -0.0057237 0.005931 0.00162419
2689 10 1 58.3509 47.0591 19.7983 0 0 0
847 4 3 54.4704 44.9654 21.0368 0.00105754 0.0028657 0.00119928
345 2 1 3.23072 56.4258 20.9093 0.00155699 0.00327332 -0.00461583
292 2 1 17.3901 58.2932 19.7504 0.00926431 -0.00312053 0.00810629
1878 7 1 13.1097 53.8408 19.0975 0.000853306 -0.00444744 0.00613467
2306 9 4 10.4608 54.0982 21.0573 -0.00301376 0.00214776 0.000261105
642 3 1 17.0057 56.9267 9.89652 0.00908151 0.00743344 -0.0119743
203 1 1 11.0629 57.143 17.7622 -0.00228774 0.00567187 -0.00431771
833 3 2 24.2661 44.9921 18.1854 0.0327674 -0.028287 -0.0041628
412 2 1 9.92364 58.8736 16.0243 0.00417904 0.00395839 -0.00131901
2470 9 3 19.5303 52.6158 19.4589 0.000879777 -0.000308555 0.00700986
320 2 4 17.1631 56.207 17.6995 -0.00484012 -0.00286254 -0.00303393
865 4 1 15.8169 53.0058 20.6649 -0.00303001 3.78416e-05 -0.00147588
541 2 2 22.4501 49.8155 26.7979 -0.00246398 -0.0132503 0.0223552
542 2 2 46.9331 8.58528 32.8062 0.0388114 0.0218571 0.0283751
2370 9 1 26.0335 55.8199 18.064 0.00701913 -0.00185372 0.00114998
613 3 1 22.9247 54.897 25.8613 -0.0047091 -0.00291747 0.00734164
1489 6 1 23.1229 54.5984 19.7822 -0.00179322 0.00203231 -0.00179491
2648 10 1 23.5631 2.70074 23.2504 -0.00035065 0.00622383 0.00186045
1658 6 2 37.3304 56.7963 0.426088 0.0231662 -0.00535745 -0.0359495
2497 9 2 37.7379 4.14719 36.5592 0.00740443 0.00848254 0.0339244
1981 8 1 33.112 55.3628 21.0398 0.002908 -0.00445096 0.00138037
179 1 1 34.6362 59.2122 17.9558 -0.00461237 -0.000708485 -0.00126502
539 2 2 23.3432 54.8179 10.1581 -0.0250014 0.00365366 -0.013721
2058 8 1 32.0095 57.147 21.1495 -0.0077069 -0.00115309 -0.00263565
1699 7 1 38.8861 55.2411 25.1242 0.00143094 0.00389348 0.00771563
518 2 2 37.8101 50.7609 17.7011 -0.00496919 -0.0110769 -0.00838806
2343 9 1 41.4789 55.7089 15.8576 0.00353692 0.00215919 -0.00758378
2802 10 2 41.8579 50.323 3.4396 0.00384052 -0.00966134 -0.0338574
1784 7 1 51.7516 58.8622 15.9884 -0.000583038 -0.00133507 -0.00315878
899 4 1 50.3251 54.9113 19.2853 -0.00329784 0.00143474 0.00436842
1717 7 1 52.0327 59.5999 15.0529 0.000708441 -0.00354191 -0.00111491
861 4 3 49.3644 51.9774 14.1436 0.00112339 -0.00817781 -0.00235819
2221 8 2 44.6058 58.1507 13.0586 -0.012941 0.0103939 -0.00557405
2104 8 1 50.5456 52.0324 21.3092 0.00448529 -0.00358262 0.00116482
2257 9 3 51.219 56.6182 15.0994 0.00272912 -0.000973014 0.00322984
1443 6 1 49.7181 56.5572 20.1026 -0.00397096 0.00111895 -0.00111793
301 2 1 48.198 52.9723 17.0242 0.000572802 -0.00302143 -0.0033349
2419 9 1 50.0764 55.794 17.0557 0.00395379 -0.00461001 -0.00967791
55 1 1 49.4397 51.9044 13.4112 0.000408897 -0.00276115 -0.0107384
2755 10 1 52.4292 57.2419 21.1768 0.00200214 -0.00133446 0.00288056
821 3 2 53.8313 53.4937 12.7256 -0.00315582 0.0044719 -0.0100746
824 3 2 2.32003 47.4491 21.6605 0.00646882 -0.020075 0.00729589
1406 5 2 55.8581 59.1326 18.3777 -0.00268677 -0.0217545 -0.0148639
817 3 2 53.6062 56.061 12.8545 0.0153377 0.0218098 -0.00823657
2581 10 1 59.7319 57.4576 16.6179 0 0 0
786 3 2 57.2994 59.1852 20.0654 0 0 0
1519 6 1 57.7415 57.7043 17.2876 0 0 0
2376 9 1 54.756 59.4165 20.7911 0.00307044 -0.0071532 -0.00343764
2528 9 2 55.7654 52.6042 21.924 0.00250219 -0.00594001 0.0134361
1380 5 2 5.03173 9.57114 20.6644 0.0228732 0.0441655 -0.0246119
627 3 1 0.265009 5.87657 27.1366 0 0 0
2353 9 1 0.818609 3.09488 25.722 0 0 0
2720 10 4 0.928312 5.22723 22.3762 -0.008903 0.0017841 -0.00256686
169 1 3 5.0689 3.87009 26.7117 0.00652718 -0.0019721 0.000716358
89 1 1 6.04829 3.38788 26.4845 -0.00312096 -0.00344094 0.00503829
232 1 2 58.238 2.85181 22.2255 -0.0186316 -0.00975307 -0.0121269
1957 7 2 17.3367 11.0871 22.5073 0.0165986 0.0175825 -9.59422e-05
1279 5 1 6.89426 1.79038 24.04 0.00596601 -0.00538466 -0.00329456
688 3 1 12.6491 3.14767 33.4172 0.00323605 -0.000772552 0.00986294
476 2 1 9.84574 1.21591 32.3242 -0.0031183 -0.00237055 0.00744869
115 1 1 16.2171 5.765 28.4926 0.00465226 0.00137056 0.000814558
178 1 3 10.9802 57.945 21.6237 0.00157491 -0.00652716 -0.00581836
2641 10 3 10.6453 5.03903 23.6818 0.00376115 -0.00192142 -0.00696898
1984 8 1 14.8989 6.48429 31.1442 0.000580258 0.00516751 0.00264683
2765 10 2 21.2985 7.50562 31.1135 0.0166139 0.00102167 0.00575723
168 1 1 11.4322 1.20273 23.4719 0.0015647 0.00213734 -0.00204026
109 1 1 11.0625 3.95965 32.9325 0.00310635 0.00528894 0.00729069
1191 5 1 13.1832 4.58363 21.5275 0.00333924 0.00557012 -0.00917467
2646 10 1 24.8404 8.90644 32.4406 0.00612719 0.00589456 0.00806335
503 2 1 18.2116 1.87487 28.4846 -0.00771291 -0.00538505 -0.000430242
2482 9 2 16.0946 58.2738 24.2531 -0.0127542 -0.0149489 -0.00560846
2817 10 2 18.6132 47.539 34.0443 0.000518962 -0.0290379 0.0114822
1954 7 2 20.0077 11.0213 26.407 -0.00723163 0.0156312 -0.00601959
1666 6 2 37.0579 56.9566 32.8211 0.0105818 -0.00936359 0.0195044
1554 6 1 39.1197 5.70265 28.8811 0.00675228 0.00351715 0.00376474
1520 6 1 30.2798 7.72314 28.2084 -0.00264082 0.00359562 -0.000148085
1194 5 1 34.0483 56.9953 26.966 2.57723e-05 -0.00620517 -0.00189306
1748 7 1 44.3699 6.91383 26.499 0.00252812 0.00496478 0.0051132
2055 8 3 35.4977 3.25098 25.4427 -0.00427977 -0.00029708 0.00161973
1319 5 3 43.3092 3.71907 22.9065 0.000183092 0.00146308 -0.000521273
2424 9 1 39.7834 8.04193 27.3495 -0.00972302 0.00150617 0.000144381
601 3 3 38.0089 5.35066 30.3842 -0.00259861 0.00719758 0.00710589
2660 10 1 47.6275 0.603011 21.6758 0.00782688 0.00112996 -0.012215
1611 6 1 44.2677 6.21153 25.2515 -0.00358318 0.0037717 0.004808
813 3 2 38.8566 53.5654 28.946 -0.0184111 -0.0147031 0.00681554
2075 8 1 48.3354 2.79142 28.1928 0.00275606 -0.00252528 0.00208771
37 1 3 49.7281 2.19104 26.1584 0.00103841 -0.000378128 -0.00155728
1472 6 1 50.8047 0.625173 27.3794 -0.00224841 -0.0024262 0.000302399
308 2 1 49.0876 7.1639 24.9091 -0.00517899 0.00327695 -0.000565973
1084 4 2 40.6562 11.858 21.3385 -0.0134484 0.0111725 -0.00316973
1250 5 1 45.5246 4.26635 24.5981 -0.00382324 0.00686987 -0.000124196
1253 5 3 57.3053 6.10787 26.0793 0.00534426 0.00229256 -0.00227467
553 2 2 58.1971 4.98677 26.982 0 0 0
2675 10 1 55.2065 0.774364 28.0192 0.00403928 0.000804409 -0.00516867
1838 7 1 57.2051 4.78451 26.573 -0.00342016 -0.00440295 -0.000460594
1415 6 1 57.1473 3.70729 26.5492 0.000926132 0.000230139 0.00195559
2580 10 1 55.7772 5.16565 28.8516 0.0020492 -2.00801e-05 -0.000561872
2115 8 1 0.312643 12.4657 24.6361 0 0 0
2606 10 3 1.43198 10.293 23.435 0 0 0
1694 7 1 1.22722 12.8902 26.7372 -0.00517502 -0.00155983 -0.000503982
2743 10 4 12.3971 13.788 29.438 0.000139349 -0.000493465 0.00345146
1114 4 2 10.8133 6.3616 21.7144 0.00489523 -0.0150467 -0.00293152
1509 6 1 20.0432 8.63137 31.5467 0.00507828 -0.00815965 0.00947956
2098 8 1 22.2799 6.89917 29.3285 0.000633323 -0.00204918 0.00238394
962 4 4 16.3285 10.7524 23.0889 -0.00747496 -0.00518204 -0.00057702
1019 4 1 21.6469 10.5072 25.1658 0.00757587 -0.00248033 -0.00850888
1305 5 1 23.2405 10.2045 29.9411 -0.00647864 0.00309233 0.000193208
1013 4 1 24.8548 15.3392 30.3396 -0.000250296 0.00421523 0.00142368
1804 7 3 23.4597 13.5487 27.8478 0.000178096 -0.00021791 -0.000236691
739 3 1 26.0079 13.4923 26.3833 -0.00195041 -0.000966762 -0.00155876
1730 7 4 28.6848 9.33234 28.191 -0.000495232 -0.00321555 -0.00169986
961 4 1 23.2394 13.8295 23.2831 -0.00866358 0.00354308 -0.00299811
1650 6 2 33.3513 19.4343 29.1088 0.00824809 0.0124009 -0.00112771
2314 9 1 22.837 7.05136 25.7898 -0.000726262 -0.00358235 -0.00718442
1356 5 2 34.8884 28.8041 44.3155 0.00865576 0.0324033 0.0349289
2016 8 1 34.0114 12.4434 23.1597 0.00353005 -0.00157728 -0.000537512
839 3 2 33.7065 6.08754 16.3648 -0.001447 -0.00931433 -0.0204551
1104 4 2 34.9575 9.22208 29.7365 -0.0141036 -0.00177205 0.0088886
799 3 2 29.1507 8.41245 26.3534 -0.0194275 -0.0105844 0.0075493
887 4 1 46.1463 9.0867 24.8844 0.00254084 0.00218903 -0.00140314
2649 10 1 39.2148 6.92311 29.4106 0.00178517 -0.00139332 0.00270182
853 4 1 43.0617 12.5504 29.1183 -0.000263911 0.00279672 -0.000225293
156 1 3 38.9993 14.0681 22.8646 0.000379771 -0.000453981 -0.00107539
1647 6 2 29.1369 7.66967 27.6962 -0.0272662 -0.00679691 -0.00235738
936 4 3 42.8695 13.2927 29.4453 -0.00385663 -0.00199609 0.00373598
200 1 3 51.6268 13.4095 23.1055 0.00256208 0.00271638 0.00459038
1741 7 1 47.041 9.6995 28.8532 0.00255053 -0.00280767 0.00547842
1599 6 1 45.6038 15.5005 33.6469 -0.00179401 0.0065797 0.0104002
185 1 1 43.8777 16.9571 28.6004 -0.00266455 0.00406294 0.00327421
778 3 3 47.2673 8.28901 29.057 -0.000301964 -0.001142 0.00430919
1596 6 1 44.2249 10.6714 28.4775 -0.00806284 -0.0029588 -0.00077043
1953 7 2 52.6596 10.1089 25.9918 0.0034335 -0.00474169 -0.00302414
1722 7 4 48.3141 8.68347 21.9607 0.00276494 -0.0032762 -0.00979351
254 1 2 55.0155 13.2224 25.9329 0.00259147 0.0101742 0.00370971
1688 6 2 56.2079 7.28079 25.0992 -0.0100688 0.00939651 0.00374885
316 2 1 59.512 7.17631 27.4753 0.00718318 -0.00369999 -0.000142357
2132 8 1 52.6423 10.5128 24.3368 -0.00125399 -0.00391432 -0.00284183
534 2 2 58.4041 7.75726 26.8592 0 0 0
235 1 2 57.6062 12.0366 24.0829 0 0 0
1950 7 2 52.7867 13.3852 28.5181 0.00160231 0.0215673 -0.00348904
2066 8 1 2.43359 20.1375 29.0739 0 0 0
2608 10 1 0.0472505 20.9864 22.8536 0 0 0
2256 8 2 2.27825 18.5443 25.8712 0 0 0
1353 5 2 0.238048 21.5039 25.4909 0 0 0
2389 9 1 7.52458 16.5127 24.2204 0.00243353 -0.00359039 -0.00172157
1032 4 1 4.95733 19.3128 23.6565 0.00418324 0.00384861 0.000444787
2490 9 2 2.01711 17.2785 20.3622 0.00224239 0.00378755 -0.00994851
922 4 1 5.65526 21.2373 28.994 0.00436682 0.0010941 0.00242139
1506 6 4 8.38475 13.5092 24.266 0.00153512 -0.00484795 -0.00747372
2610 10 4 14.1485 16.5931 25.8298 -0.000846995 0.00100655 1.451e-05
1224 5 4 7.85311 23.3287 25.5365 0.000176292 0.00453317 -0.00437531
639 3 1 8.85356 21.4012 28.5695 -0.000752095 0.0071821 0.000601403
2629 10 1 7.95206 16.9532 29.2907 -0.00172313 -0.00439437 0.00162967
2145 8 4 19.0606 19.3401 23.4136 0.00575539 0.00321085 -0.00203292
2658 10 1 22.4891 14.4404 31.159 0.00989341 -0.00777905 0.00442415
1831 7 1 18.3748 26.314 32.1424 -0.000254289 0.00812933 0.00716486
1779 7 1 21.4993 15.5249 24.5959 0.00389338 -0.00105971 -0.00136503
2108 8 3 22.5342 21.1538 21.1216 0.000966422 0.000403038 -0.00730045
2125 8 1 19.6384 19.1716 26.0111 0.00397656 0.00142861 -0.0052825
2655 10 1 20.2377 14.7014 24.4067 -0.000277101 -0.00842434 -0.00599884
681 3 1 22.3214 21.1452 28.6149 -0.00415288 0.0074811 0.00491305
1072 4 2 24.7176 27.8525 34.6306 -0.00688762 0.0160128 0.0121697
438 2 3 24.1015 18.6496 22.9636 -0.0027222 -0.00136472 -0.00102032
625 3 4 22.746 15.1505 27.358 -0.00426733 -0.00070047 -0.000458001
928 4 4 29.2866 20.2103 26.8015 -0.000711652 -0.00201716 -0.00142753
1632 6 2 21.1678 19.549 26.2189 -0.0130946 -0.00290719 -0.00135408
247 1 2 15.2151 13.4667 26.0956 -0.019503 -0.00749643 3.84854e-05
1905 7 4 30.4781 17.4246 26.0268 0.000852551 -0.000687392 0.000325044
172 1 1 38.9751 15.974 26.1694 0.0061126 -0.00131846 0.00103264
2476 9 1 35.4795 20.8545 25.303 0.0025846 0.00328194 0.000584537
1793 7 1 38.3215 17.05 24.1563 0.0021698 0.000827067 -0.00137742
177 1 1 28.3853 15.0692 20.5595 -0.00589572 -0.00268174 -0.00424977
371 2 1 31.4127 15.7535 24.1603 -0.00118004 -0.0023546 -0.00324596
2288 9 1 33.5189 17.6856 29.1219 -0.00516092 0.00114559 0.00280036
1815 7 1 46.2873 22.4828 27.9634 0.00941645 0.00550896 0.00449905
2418 9 4 40.6039 19.8527 22.3746 0.00226612 -0.00175977 -0.000685918
1754 7 1 47.4575 19.6004 20.4377 0.00840692 0.000327357 -0.00498918
1873 7 1 43.334 18.2586 28.6873 0.0039332 -0.00157565 -0.000674888
1463 6 1 42.1115 14.9987 24.3463 0.00208126 -0.00307098 3.51062e-05
675 3 1 36.2088 13.8083 22.5819 -0.00417533 -0.00560781 -0.00416458
2120 8 1 43.7959 18.1062 28.1399 -0.00229093 -5.32934e-05 0.00356151
1961 7 2 37.5725 59.3798 22.673 -0.0114006 -0.0345509 -0.00661111
2331 9 1 43.3907 18.9435 24.0663 0.00297143 -0.00224086 -0.00652943
1387 5 2 44.1043 22.0413 17.5598 0.000748446 0.00507764 -0.0183282
1444 6 1 45.1823 21.9648 26.1935 -0.00515673 0.00502096 0.00199561
1203 5 1 47.6618 13.8172 26.6255 0.0012669 -0.0034613 -0.002119
2235 8 2 47.6163 14.2392 31.5941 -0.00290994 -0.0141562 0.00864455
2423 9 1 47.7761 17.5802 26.9571 -0.00161409 -0.005676 -0.00262134
2787 10 2 55.811 17.2448 24.0535 0.0034646 0.00870281 0.0140313
2336 9 1 51.2616 21.6 25.6085 -0.00277754 -0.00122452 0.000916451
2326 9 1 49.2116 16.6773 30.6181 -0.00447181 -0.00267496 0.00250227
1678 6 2 0.79598 17.3558 25.3328 0.0140377 0.00400914 -0.00178663
2506 9 2 47.5777 17.0909 26.2241 -0.0182686 -0.00485036 -0.0041693
2586 10 1 58.5571 16.8788 25.5412 0 0 0
2117 8 1 59.828 19.6821 29.8773 0 0 0
783 3 1 54.5402 18.8008 23.0467 0.00896642 0.00195136 0.000543852
1645 6 2 59.3971 16.8619 28.4504 0 0 0
1931 7 2 54.0682 20.813 25.9332 0.00989277 0.0044667 -0.013184
1579 6 3 56.8204 26.6263 28.3405 -0.00485087 -0.00645274 0.00580745
2009 8 1 4.52069 25.3054 30.6886 0.00512476 -0.00325165 0.00452772
2554 10 4 1.65902 25.232 26.0868 0 0 0
289 2 1 9.16311 28.1415 26.88 0.0038681 0.00367571 -0.00813679
1058 4 1 3.76653 30.545 22.7896 0.00682412 0.00680434 0.00150852
2192 8 1 2.6794 27.2483 20.4656 0.00436727 -0.000447197 -0.00567136
951 4 4 10.8084 27.4839 29.4655 -0.00470408 -0.00123122 0.00727966
2031 8 1 18.1469 26.8585 23.1332 0.00741005 0.00629598 -0.00149955
2286 9 4 15.6643 25.2714 27.6075 0.00460435 -0.00228843 0.00510212
1335 5 1 8.39549 27.1739 27.5937 0.0013167 0.000364549 0.012548
555 2 2 29.1379 33.0097 50.312 0.0130541 0.00769075 0.050093
2792 10 2 19.2962 30.4184 31.5681 -0.0123714 0.00517915 0.0115767
2463 9 1 30.3913 28.5299 30.0195 0.00592264 0.00928011 0.00466579
1830 7 4 23.2083 23.4382 21.8682 0.000495768 0.00018563 -0.00213624
1829 7 1 26.0609 25.2676 25.9169 0.000836113 0.000150483 -0.00172921
1752 7 4 28.475 26.0608 22.5363 0.000211196 -8.84222e-05 -0.0035397
1896 7 4 24.9104 24.9615 27.7901 0.000609918 -0.00800954 6.00126e-05
139 1 1 31.1592 26.9217 26.8525 0.00992563 0.00594071 -0.00374293
325 2 1 35.9309 26.831 26.919 -0.00245694 0.000736539 0.00669373
2622 10 1 30.7947 33.0985 23.5752 0.000691287 0.0110403 0.000508699
978 4 1 31.5628 31.7425 24.6803 -0.000988833 0.006683 -0.000369823
616 3 4 33.4325 25.7035 24.3382 -0.00294034 0.00145353 -0.000927173
2 1 1 36.7056 26.8923 27.3191 0.000385009 -0.00590782 0.00434188
1355 5 2 27.5532 23.7628 26.5621 -0.0134162 0.00226772 -0.00586198
1420 6 1 34.8265 25.007 26.0823 -0.00129754 -0.002264 -0.00656183
1585 6 1 38.3401 29.161 27.1854 -0.0025819 0.000676937 0.000736984
1290 5 4 43.8165 28.4439 19.1552 0.00183153 0.00531011 -0.00992384
1479 6 1 43.1084 25.1186 20.103 -0.00264214 -0.00433855 -0.00548376
870 4 3 41.8926 24.1411 21.8304 -0.00358323 -0.0064467 -0.0041958
2249 8 2 49.1658 27.7496 25.9272 -0.0226447 -0.0159957 -0.00104352
1048 4 1 47.7598 31.3813 23.7922 0.000335976 0.00562697 0.000243766
437 2 1 49.6075 23.5691 23.724 0.000677134 -0.00075212 -0.00110721
974 4 1 48.782 24.4313 28.248 -0.0047902 0.000985068 0.00268644
148 1 4 50.0722 25.5313 27.989 -0.000893939 -0.00527683 -0.00165782
79 1 1 50.6025 28.7392 29.7464 -0.00387321 -0.00595003 -0.00277718
1811 7 1 40.2243 27.5701 28.5694 -0.00996076 0.00156184 -0.00151534
2511 9 2 54.6933 29.3283 23.8801 -0.00842438 -0.00876249 -0.00578248
249 1 2 2.94749 24.1841 25.51 0.00637217 -0.00532268 -0.00419092
1571 6 1 53.1137 24.6306 25.4665 -0.0016229 -0.00141817 0.00451958
1572 6 4 58.9368 25.5521 22.5177 0 0 0
2025 8 1 55.0529 26.896 23.7736 0.000218933 -0.00296084 0.00127312
319 2 3 57.6402 27.4331 24.2682 0 0 0
332 2 4 59.9691 27.7426 26.9625 0 0 0
2442 9 1 58.9559 25.9872 29.6479 0 0 0
2483 9 2 55.6267 24.9184 25.557 0.00399326 -0.0191426 0.00768478
524 2 2 1.83152 31.0055 21.2122 0.00897436 0.0131455 -0.00821618
2508 9 2 55.1936 20.5295 27.3571 -0.00487252 -0.000592075 0.00333678
240 1 2 1.55368 28.6299 19.3184 -0.00972866 0.00758941 -0.017133
1037 4 3 7.02638 29.2332 26.5353 0.00368509 -0.00590724 0.00299826
1602 6 4 0.548567 35.0457 23.1946 0 0 0
1868 7 1 1.74182 36.2963 24.8236 0 0 0
2387 9 1 0.724449 34.854 24.5218 0 0 0
1401 5 2 4.17521 29.2188 23.304 0.00853233 0.00137543 0.0197268
992 4 1 0.588712 31.5577 28.3736 -0.00162261 -0.00112112 -0.00221182
846 3 2 19.7136 38.913 34.4524 0.0183745 0.011587 0.0229495
2678 10 4 13.8693 35.1021 25.7198 -7.8099e-05 0.00303642 0.00147917
815 3 2 10.899 36.2355 26.0092 0.0168454 -0.00807321 -0.0105546
1540 6 1 14.4621 33.3365 25.58 0.00467132 -0.00207615 -0.0067105
1080 4 2 15.6463 16.177 24.5071 0.00441375 -0.0342714 -0.0066958
2461 9 4 18.1461 35.517 27.6035 0.000658953 0.00607706 0.00751193
620 3 1 19.9449 32.1719 27.8918 0.0025856 0.00228477 -0.00194477
946 4 1 14.7732 26.52 28.089 -0.00400211 -0.00910093 -0.000903335
472 2 1 21.8573 34.6405 28.3782 0.00533369 0.00140983 -0.00181433
490 2 1 21.6988 25.7978 29.0625 -0.0012451 -0.0144656 -0.00175313
2409 9 1 26.9199 32.0869 27.4727 0.0036679 0.00316852 0.00308638
2612 10 4 23.2556 37.8059 26.5872 0.00057381 0.00415959 0.000586021
1059 4 4 36.4613 33.7783 24.603 -0.00169289 0.00605391 -0.00031454
2574 10 1 38.6904 36.6347 25.2234 0.0117741 0.00527258 -0.000542651
1460 6 4 32.467 32.2974 28.6997 0.00502456 0.00191078 0.00108194
2446 9 1 35.3809 37.6526 27.1253 0.00276932 0.00729982 -0.000697165
969 4 1 36.0333 31.2821 29.4804 -0.000980627 -0.00143346 0.000309655
1575 6 1 32.2031 30.1642 26.5774 -0.00438369 -0.00185425 0.000806502
1915 7 2 33.1682 38.8956 33.405 -0.0056698 0.0076946 0.00868679
433 2 1 35.2838 27.4296 23.6037 -0.00133497 -0.0161455 -0.00141764
2169 8 1 40.7486 31.1077 25.5232 0.00427194 0.00171915 0.00240695
1570 6 4 38.2825 31.9522 29.4829 -0.00468787 0.00280021 0.00205194
934 4 1 51.4415 36.8964 26.9582 0.00496901 -0.00271228 -0.000416537
2091 8 1 42.5993 32.3217 31.0592 0.00296058 0.0011813 0.0028771
1705 7 1 41.2281 36.5051 28.0202 0.00147908 0.00105775 -0.000237706
1280 5 1 44.6296 34.321 28.9502 0.00153902 -0.00140453 -0.000645574
2050 8 1 39.6533 29.3535 21.9483 -0.00500731 -0.00381767 -0.00295653
391 2 1 41.8109 28.7728 27.608 -0.00468639 -0.00451645 0.00113
1308 5 1 37.6677 35.6253 26.7899 -0.0042107 -0.00274507 -2.32106e-05
1598 6 1 39.736 35.618 24.4532 -0.000712803 0.000960273 -0.00707971
365 2 4 51.8353 35.2922 23.2171 0.000566364 0.000923374 0.000843042
463 2 1 49.8433 34.7434 24.0152 0.0018923 0.00163485 -0.00109784
93 1 1 49.9835 35.0347 21.116 0.000904202 0.00116183 -0.0037484
1781 7 1 52.2115 35.3731 28.7912 0.000204661 0.00153785 -0.00043636
1892 7 3 52.3206 32.8958 28.3868 0.00360504 -0.00583297 0.000590546
689 3 3 44.6566 33.0998 28.5965 -0.000885916 -0.00667162 -0.002625
2526 9 2 1.76394 28.7819 27.7154 0.00732697 -0.00319628 0.00275032
158 1 1 58.8644 30.8717 26.9557 0 0 0
1802 7 1 59.3483 35.4149 26.8236 0 0 0
1389 5 2 56.6164 39.4148 25.093 0.0169651 -0.00996943 0.000758628
2421 9 1 4.23292 35.2972 29.0121 -0.000455232 -0.00417835 0.00197227
2799 10 2 0.991789 41.2592 24.1397 0 0 0
1283 5 1 4.51344 43.156 25.8416 -0.000824928 0.00282659 -0.00254059
2643 10 4 6.00127 37.899 26.3285 0.00537349 -0.000443982 -0.0129828
2295 9 4 8.66725 43.902 22.8195 1.80365e-05 0.00190938 0.00594112
2415 9 1 8.14392 38.9494 25.3272 -0.0041127 -0.000544558 -0.000210231
1980 8 4 3.13591 42.7613 21.9369 0.00373464 -0.0103137 -0.00481473
1068 4 2 13.9199 38.2988 29.2514 0.0378548 -0.0268938 -0.00717341
791 3 2 10.1743 45.0334 30.7307 -0.0058917 0.0122789 0.0143888
1258 5 1 12.8127 38.1923 27.035 -0.00423671 -0.00115035 0.00720587
2645 10 1 10.0079 46.307 26.8093 0.000948544 0.0138713 0.00251741
95 1 1 8.23239 39.3745 27.5909 0.0029567 -0.0012217 -0.00164821
1560 6 1 11.8396 46.0683 29.0819 -0.00305325 0.0100476 0.00049118
1310 5 4 11.8529 37.8993 24.431 -0.00325681 -0.0015401 -0.000424668
2162 8 1 13.2478 38.8625 20.2713 0.00725126 -0.0112038 -0.0089608
2684 10 1 10.0496 41.8958 20.3831 -0.000495523 -0.00348869 -0.00769132
2094 8 1 20.1743 42.1678 24.2774 0.00740007 -0.00199356 0.000753332
1041 4 1 24.3705 41.9562 26.3303 0.00734658 -0.00125585 0.00160286
2290 9 1 21.0759 46.5699 28.5248 0.00362203 0.00522377 -6.94715e-05
2340 9 1 17.082 39.8513 30.6254 5.66641e-05 0.000268711 0.00244231
2159 8 1 17.4733 40.7029 22.4386 0.00103978 -0.00441241 -0.00652339
1639 6 2 18.7058 44.5298 22.4498 -0.0131386 0.0133582 -0.00302378
1774 7 4 26.5404 37.2298 24.7034 0.00438398 -0.00579151 -0.00228833
986 4 4 24.0888 47.7669 25.9911 -0.00161443 0.00840732 -0.000280389
2319 9 1 27.029 43.6115 30.2662 6.78643e-05 0.00138486 0.00183722
1266 5 4 23.2218 44.0802 25.8213 -0.00240363 -9.74351e-05 -0.00116782
1136 5 4 27.6249 43.996 26.3336 -0.00296975 0.00643613 -0.00119286
1733 7 1 34.5633 37.986 27.5815 0.000691108 0.000429468 -0.00213527
2065 8 1 32.4773 40.8433 26.3037 0.000661239 -0.00520823 0.00122342
1563 6 1 34.5491 36.7861 25.9185 0.00022628 -0.00702665 -0.0078074
2362 9 1 34.0693 40.1311 25.4421 0.00324698 -0.00885439 -0.00644198
1161 5 1 40.7914 43.5733 23.0755 -0.00377526 -0.00202802 0.000670209
829 3 2 39.334 48.9407 27.9833 -0.000433473 0.0115189 -0.000555955
481 2 1 42.2017 36.8611 29.3828 0.00127862 -0.00542972 -0.00125883
1193 5 1 50.8472 39.6723 29.2018 -0.00482001 -0.00312752 0.00086462
2562 10 3 47.2024 44.8812 25.5927 -0.000935296 0.00503309 -0.000470856
2345 9 1 48.4647 37.352 22.1741 -0.00147717 -0.000536012 -0.00241253
452 2 4 47.2984 42.9453 23.9194 0.00103659 0.00200444 -0.000387007
2271 9 3 52.2467 40.6078 25.1809 0.00147625 0.00304122 -0.00742523
725 3 1 48.6924 44.2384 22.5403 -0.00092701 0.00187297 -0.00170919
1438 6 4 48.5792 38.8763 28.1512 -0.00129473 -0.00131264 -0.000917823
1485 6 1 45.4613 40.852 28.9875 -0.00553432 0.000809234 0.00257821
2279 9 1 47.9825 40.1711 25.0098 -0.00210774 -0.00366584 -0.0022399
1770 7 1 45.3342 38.8251 25.6517 -0.00262647 0.00113621 -0.00671989
1110 4 2 52.6599 48.2655 26.0558 0.000266184 -0.0187395 -0.00772737
1484 6 4 53.2966 40.6067 24.6377 0.00326056 -0.00122633 0.000720943
2390 9 3 54.6711 38.8342 23.9875 0.00272433 -0.00230788 0.000206724
234 1 2 57.3732 40.9243 26.4219 0 0 0
1550 6 4 53.4894 39.8558 22.9215 0.00366519 -0.00289122 0.00282089
1495 6 1 57.3452 42.0317 30.2298 0.000718712 0.00344524 0.00400048
1219 5 1 55.7501 44.1601 25.3414 0.0014084 -0.00577724 0.00101267
2444 9 1 0.882842 42.8419 23.1334 0.00305441 -0.00407742 -0.00121771
1947 7 2 56.7762 38.2438 28.9566 0.00810719 -0.0197254 -0.00389716
1628 6 1 0.0442967 51.6694 24.7745 0 0 0
1124 4 2 2.87036 45.0598 27.4099 0 0 0
1092 4 2 0.428314 51.0748 28.5847 0 0 0
2591 10 1 14.0405 57.8921 28.1177 0.00441209 0.0136414 -0.0010196
909 4 1 6.73924 49.0498 25.5777 0.00683727 0.00518886 -0.00502256
898 4 4 11.1237 49.1793 22.8706 -0.00190191 -3.15466e-06 -0.00951765
2519 9 2 17.0447 58.9087 49.5212 0.00241499 0.0232323 0.0400832
39 1 4 19.9741 52.4099 25.3351 0.00582442 0.004226 0.000199507
2341 9 1 20.6361 50.2756 25.2341 0.00264596 -1.87808e-05 0.00265346
535 2 2 21.1619 38.614 21.5354 -0.00142442 -0.014084 -0.0111729
2747 10 1 30.5476 49.6976 28.2464 0.00532702 0.00644409 0.00426033
129 1 1 24.7407 54.9205 22.4518 -0.0013871 0.00501207 -0.00312469
74 1 4 27.6364 44.4381 24.3099 -0.00481323 -0.00440767 0.000220983
296 2 1 21.8968 46.8055 29.0355 -0.00258816 -0.00370993 -0.00190914
2111 8 1 33.77 48.0572 29.8056 -0.004525 -0.000507443 0.00425673
182 1 4 36.086 48.9323 26.1104 0.000877598 -0.00385143 -0.00142035
279 1 2 35.2117 52.2526 14.6218 0.00955654 0.00139912 -0.0199832
1285 5 1 33.5544 49.4385 29.6669 -0.00756647 0.000525448 -0.000585228
2474 9 1 40.608 52.8696 30.725 0.00312587 0.00765342 0.00924493
2557 10 1 40.0794 54.3471 28.0019 0.00398659 0.00455427 0.00155892
1138 5 1 37.2165 48.0818 25.9494 -0.00135766 -0.00115403 -0.00143287
1721 7 1 39.1482 49.032 26.0388 -0.00333918 0.000692152 0.00106953
1763 7 1 44.2698 47.4706 26.0823 0.00280211 -0.00437339 -0.00273409
207 1 1 35.9143 50.3271 24.1761 -0.00813955 -0.0017736 -0.00585681
522 2 2 48.4181 49.7596 29.3133 -0.0164743 0.00578064 0.0051962
2063 8 1 51.546 49.2244 26.2784 -0.00204405 0.00432026 0.0039541
930 4 1 49.1182 47.7538 29.9632 -0.00501928 -0.000294136 0.00267003
960 4 1 48.8914 49.3648 24.954 0.000237253 0.00120664 -0.000750266
1264 5 1 47.1519 51.0155 28.0638 0.000930118 0.00039993 -0.000894029
2364 9 1 44.232 47.1402 24.1445 -0.00232935 -0.0033718 0.000667974
1299 5 4 44.3014 50.8092 22.5174 -0.00232889 -0.00190833 -0.00337758
2388 9 1 52.9605 52.6407 22.7991 -0.000320606 -0.000868148 -0.00362641
1424 6 1 55.3503 48.8966 22.3026 -0.00774739 -0.00125165 -0.00528218
1400 5 2 48.92 49.7834 29.6426 -0.00723829 -0.0111529 0.00062424
33 1 1 52.7659 46.3903 23.7251 0.000242123 -0.00469518 -0.00120778
1036 4 1 53.3342 49.7128 23.2155 0.00606711 -0.000246847 0.00243452
1116 4 2 57.5007 45.8122 25.6558 0 0 0
996 4 1 53.4631 47.4226 23.7436 0.000114966 0.00125363 0.00227868
1329 5 1 55.3607 48.4131 26.8533 0.00392449 -0.00171101 0.000615483
2131 8 1 52.7927 52.4688 26.5896 -0.00276669 0.00334333 -0.0011274
2680 10 1 2.79772 53.5214 26.5687 0 0 0
2174 8 3 12.8553 55.7764 25.0787 0.000275374 0.00463432 0.00253156
2346 9 3 12.3264 54.0173 21.1908 -0.00020768 0.00177217 -0.00662802
651 3 1 13.1512 52.9578 24.179 0.00233814 -0.00124737 -0.00637924
684 3 1 16.1471 53.5049 25.4293 -0.00500198 -0.00406374 0.00460898
467 2 1 19.195 53.251 22.4835 -0.002174 -0.0118833 -0.00148687
1746 7 1 20.3046 52.6557 29.8955 -0.000690717 -0.0051059 0.0056446
1127 4 2 19.3646 51.7042 18.2683 -0.00426645 -0.00785771 -0.00948703
1360 5 2 30.8176 52.2959 27.3211 0.0240091 -0.00284437 -0.00305075
2354 9 1 23.6482 59.1975 20.2866 0.00141309 0.009997 -0.00677806
17 1 4 25.2584 54.8891 26.339 0.00460346 -0.00264836 0.000949507
2545 10 1 28.6616 51.3123 29.3777 0.00201995 -0.00427489 0.00238409
2293 9 3 18.1362 58.687 26.5142 -0.0103657 0.0027167 0.0017751
1328 5 3 21.9133 54.88 23.0201 -0.00335823 6.1861e-05 -0.00873478
918 4 4 28.3325 59.9216 23.8384 -0.000177134 0.00288515 -0.00980688
1696 7 1 42.6129 55.9183 26.0875 0.0104663 -0.00417627 0.00342443
2563 10 1 34.1564 1.12157 26.6417 0.00347859 0.00543728 0.000806759
2038 8 1 34.0792 53.1617 28.5565 -0.0064691 -0.000218895 0.000809138
306 2 3 44.292 58.9328 26.539 -0.000408394 -0.00217109 -0.0018812
2116 8 1 45.9473 58.2822 26.2156 0.00769789 0.00927502 0.00212008
175 1 1 38.3642 55.6391 26.7382 0.00133683 -0.00301839 -0.000979707
2404 9 4 42.0797 52.7186 24.7515 0.00303742 -0.00558993 0.000440998
2275 9 1 46.1762 58.8951 25.0085 0.00286029 0.00136361 -2.18033e-05
862 4 4 42.1225 56.5488 25.2584 -0.00439403 0.000710771 0.00048813
1635 6 2 34.5262 3.61178 20.912 -0.00986646 0.010139 -0.0168606
1190 5 1 50.8263 55.0778 28.6354 0.00249711 0.00143624 0.00613059
1298 5 4 49.4429 56.0087 28.9619 -0.00354612 0.0009586 -0.00196783
1212 5 1 44.9786 59.3073 26.039 -0.00251299 0.000232384 -0.001995
167 1 1 47.3634 58.4296 26.6419 -0.00164346 0.00188438 -0.00287839
1654 6 2 41.4308 47.1879 28.7286 -0.0212355 -0.0235869 0.00725601
1692 6 2 0.917596 51.469 24.8126 -0.0171542 -0.00190115 0.00730658
544 2 2 3.48328 54.0183 33.1627 0.00197721 0.0270647 0.0199375
873 4 1 52.8166 54.4475 27.1481 0.00323108 -0.00192104 0.000261947
1066 4 1 53.7997 59.5107 23.6978 -0.00139025 -0.000933176 -0.00350661
347 2 1 53.1898 54.4886 28.1984 -0.00334083 -0.00212391 0.00274532
1629 6 1 53.4875 52.1498 24.109 -0.00426811 -0.00320329 -0.000729161
775 3 1 59.0716 56.189 23.2127 0 0 0
2309 9 1 59.8588 53.952 23.0224 0 0 0
2599 10 4 58.6706 58.2995 23.6288 0 0 0
2669 10 1 59.1555 55.7327 28.69 0 0 0
270 1 2 58.3941 53.2591 25.1186 0 0 0
2179 8 4 0.826717 6.01853 33.5078 -0.00442655 0.00344497 0.00174456
2034 8 4 1.36157 2.77695 33.3969 0 0 0
2452 9 1 2.19037 2.47218 37.0865 0 0 0
1259 5 1 7.61912 2.66925 33.2056 0.00394662 -0.00732109 0.0081346
2750 10 1 58.3676 5.47247 37.3412 -0.0054356 0.00721584 0.002842
916 4 1 8.64935 1.04736 33.1081 -0.0114732 -0.00575414 -0.00248391
2212 8 2 14.7471 56.8761 44.7997 0.00809463 -0.016403 0.0182681
2539 10 3 11.0887 2.95499 32.4787 -0.000525369 0.00509586 0.00292436
1718 7 1 5.77774 5.98602 36.1417 -0.00048347 -0.0124806 -0.00758088
2371 9 1 14.971 2.47048 34.3731 0.000542537 0.00196206 0.00195921
877 4 1 9.22849 6.55231 29.4369 -0.0031498 0.00158497 -0.00881642
43 1 1 19.8859 1.88157 34.0101 0.00467062 -0.0100205 0.00156263
2402 9 1 20.288 1.43912 28.7063 0.00245806 0.00190872 -0.00874654
1567 6 1 18.6078 2.47095 32.003 -0.00198829 0.00488959 -0.00698307
1904 7 1 23.0917 8.97726 36.7678 5.72883e-05 0.0058979 0.00204797
111 1 1 26.2502 59.1825 32.1298 -0.00139078 -0.00322313 -0.00281069
589 3 1 24.2606 59.8826 30.2192 -0.00755101 -0.00449889 0.000160782
2219 8 2 32.3485 57.0647 34.2332 0.0137815 -0.0145463 -0.0026407
1251 5 1 26.3713 59.8767 35.4272 -0.00539214 -0.00129555 -0.00228952
2501 9 2 31.663 11.7484 44.9426 0.00230241 0.0122161 0.0282007
2630 10 1 37.9338 1.16533 33.1323 0.00131678 -0.00170836 0.00210911
2613 10 1 39.363 5.0983 33.7244 0.00715811 -0.00195005 -0.00761546
1531 6 1 36.5132 5.97202 31.1347 -0.0015733 0.00366307 -0.00706431
2328 9 4 43.1208 3.77872 31.1683 0.00255917 -0.0041567 0.00232324
22 1 1 41.2885 2.58845 27.9877 -0.00307527 -0.00203145 -0.00604035
389 2 1 39.7889 3.54973 33.7057 -0.00613591 -0.000706212 0.00223877
2168 8 1 52.5563 6.23988 31.5841 0.00358538 0.00133767 0.000497066
2706 10 1 48.2235 4.292 29.9551 0.00549407 0.0001608 -0.00593078
1132 5 1 52.0857 4.05819 33.693 0.00575958 0.00029264 0.00300135
1272 5 1 46.1559 10.2931 37.3362 -0.00323544 0.00611829 0.00399446
762 3 1 52.3381 4.8101 34.3036 -0.00166804 -0.00218795 -0.00408931
96 1 4 49.3567 2.12043 31.3254 0.000596232 -0.00284381 -0.00227555
788 3 2 50.9631 3.33218 32.3608 -0.005359 -0.00457139 -0.000597412
1726 7 1 48.0004 2.13964 31.3857 0.00246419 0.00372769 -0.00104417
736 3 1 54.713 6.98266 36.4762 -0.000605559 0.000874992 -8.79876e-06
1045 4 1 54.0497 4.12346 33.2938 0.0031232 0.00479756 -0.00139215
603 3 4 57.8537 1.49107 36.4541 0 0 0
600 3 1 59.1241 5.38449 36.2702 0 0 0
2013 8 4 55.7918 5.82328 36.346 0.001872 0.000709188 0.00134867
60 1 4 1.06995 3.97537 32.3651 0.00285346 -0.00336589 -0.00231629
2227 8 2 53.2333 4.47515 28.6909 -0.00573721 0.000699215 0.00644541
2242 8 2 3.7107 8.09592 30.6412 0.0241705 -0.00236822 0.0115418
2173 8 1 58.7615 8.04838 35.324 0.0039434 0.00143435 -0.00205171
263 1 2 56.9603 51.1055 28.8119 0.00894738 -0.0179027 -0.00497766
2017 8 1 2.45864 9.86372 36.0648 0 0 0
1806 7 1 2.39455 10.7608 34.8533 0 0 0
2556 10 1 10.7184 14.7521 29.2232 0.009249 -0.00222838 -0.00362589
2524 9 2 57.9308 1.61597 36.8406 -0.0132729 -0.0159949 0.0102287
931 4 1 13.4312 5.61968 31.2488 0.00829548 -0.00861121 -0.00614602
2106 8 1 9.91786 9.5287 28.195 0.00528319 -0.00390199 -0.00357691
114 1 1 10.8175 11.4419 25.5291 -0.00338647 -0.00127349 -0.0116292
2070 8 4 9.48604 14.1934 35.6475 0.00381085 -0.00408379 -0.00698098
2761 10 2 16.3903 1.41312 38.4816 0.00234911 -0.0194755 0.0135136
552 2 2 25.3078 6.49107 40.2761 0.0179089 -0.0123163 0.0120221
737 3 1 17.916 9.10409 37.1449 -0.00303626 -0.00155799 6.14564e-05
1709 7 4 22.164 16.3783 35.5764 -0.000617869 0.00630671 0.000725788
1222 5 4 17.4152 6.1257 30.0606 -0.00392157 -0.00404591 -0.00908513
1549 6 1 25.1795 8.31063 33.1215 -0.001863 -0.00347432 0.00122927
1782 7 3 27.0202 8.32638 34.5413 0.005382 0.000440135 -0.00400728
422 2 4 34.337 16.6811 37.4922 -0.000811467 0.00707747 0.00775522
1822 7 1 35.4917 13.2586 40.2278 0.00210516 -0.00112485 0.00887011
2078 8 4 37.8631 6.62933 39.2168 0.00130535 -0.00189089 0.00365877
466 2 4 37.5187 7.07826 31.6281 0.000307155 -0.00190823 0.000348014
133 1 1 39.0023 13.9816 31.8545 0.00663892 -0.000921726 -0.00350602
889 4 1 33.5584 11.1929 31.4187 -0.00564479 0.000543411 -0.00222012
1547 6 1 32.8426 10.6502 30.2575 -0.00088272 0.00484669 -0.00733273
746 3 4 34.1209 14.2745 35.9663 -0.0037999 -0.00129652 -0.00160316
16 1 4 37.5912 9.25498 34.257 -0.00419155 0.00112868 -0.00145979
1325 5 1 39.6225 12.1495 32.5043 -0.0006954 0.00229207 0.000641504
1462 6 4 42.3174 12.8504 32.7696 0.00200405 -0.00305235 0.00169488
1181 5 1 40.1752 14.8209 36.2832 0.00121603 0.00355666 -0.00123211
2046 8 4 43.9429 8.24257 31.2548 0.00324705 -0.00134272 -0.00748469
1239 5 1 52.6375 9.54326 32.326 -0.00487349 -0.00295796 0.000836683
255 1 2 50.6246 11.8567 40.0777 -0.0130243 0.014648 0.0127988
190 1 1 51.0448 9.25551 32.7266 0.000333046 0.00350407 0.00372203
2302 9 3 45.4062 11.741 37.0131 -0.00207601 0.00402957 0.000489791
307 2 1 51.0424 12.3985 37.0306 -0.00670239 -0.0056738 -0.00135417
1872 7 1 46.5876 12.9475 31.5936 -0.00478331 -0.000585142 -0.00070408
201 1 1 42.5656 12.4903 30.7046 -0.00612815 -0.000938017 -0.00024976
1150 5 1 48.1606 14.5334 35.3949 0.00086781 0.00204779 -0.000694279
590 3 1 52.4475 13.286 31.3207 -0.00328228 0.00751189 -0.0050358
2368 9 3 42.9813 4.19761 36.8284 -0.00626052 -0.00723844 0.000997342
480 2 1 52.2561 10.6079 32.0597 0.00422412 0.00098141 0.00169461
445 2 1 52.2043 9.55632 36.2152 -0.00236156 0.000333828 0.00128869
2532 9 2 41.6408 58.4311 27.4296 -0.0161877 -0.0281096 -0.00796399
970 4 1 49.0352 12.4939 37.037 -0.00127202 0.00352009 -0.000494589
1510 6 1 49.4575 9.0264 33.8531 -0.000696632 -0.00349409 -0.00639951
1403 5 2 52.6621 9.14081 37.0326 0.0204734 0.0139855 -0.0112397
2166 8 4 55.0723 12.0467 30.5088 0.00447395 -0.00386238 0.00620064
1115 4 2 58.9565 10.5129 34.7749 0 0 0
692 3 1 55.6222 14.0052 31.2254 0.000539402 -0.00335418 -0.0040773
2567 10 1 2.65477 17.2251 31.094 0 0 0
1990 8 4 0.0344758 20.9812 33.3674 0 0 0
2564 10 1 1.35489 17.9627 32.922 0 0 0
2018 8 1 2.19085 19.9815 36.7156 0 0 0
183 1 1 2.7406 18.2822 32.0351 0 0 0
1740 7 1 2.51176 22.1491 35.3867 0 0 0
647 3 4 3.54276 21.1814 34.476 -0.00342807 0.000801306 0.0026584
1686 6 2 1.48522 17.08 41.2646 -0.00525502 0.00808558 0.0131305
321 2 4 1.99169 18.0682 35.1734 -0.00470782 -0.011524 0.00506281
2222 8 2 5.77956 7.41604 34.7651 -0.0148863 -0.0131974 -0.0119061
1640 6 2 19.7312 20.4333 20.7389 0.0238829 0.00718498 -0.021014
1297 5 3 13.7001 19.5173 33.8052 0.00265384 0.00742283 0.00187732
2101 8 4 11.8439 17.9592 37.2751 -0.000732147 -0.00866784 0.00330602
287 2 1 8.95014 19.4596 29.7125 0.00121162 -0.003985 -0.0100604
2674 10 1 22.1804 19.664 35.1258 0.00641019 -0.00176799 0.00387845
1500 6 3 21.2437 19.1216 31.0979 0.00326717 0.000243929 -0.000663942
980 4 3 20.4797 21.0984 28.7543 0.00656391 -0.00272084 -0.00307113
1959 7 2 20.1877 20.6574 34.764 0.00800172 0.00309379 -0.00499949
1122 4 2 29.6979 19.0737 42.1732 0.00851989 0.00715841 0.0223666
471 2 1 30.0292 14.0783 37.8232 0.0103898 -0.00711733 0.00984349
1982 8 4 25.0904 22.6932 32.7187 0.00169872 0.00732763 -0.0048159
1240 5 3 28.2919 22.3007 30.5273 -0.00320214 0.00498582 -0.00849982
2530 9 2 25.2618 14.7972 44.1543 -0.0117603 -0.0067744 0.0178799
1642 6 2 36.2671 4.06054 44.7023 0.000968946 -0.0289255 0.0195342
1152 5 3 34.6893 18.3053 32.4143 -0.000629428 0.0026799 -0.00113756
215 1 4 36.665 19.2712 31.1668 0.0014256 0.000878162 -0.00308003
805 3 2 33.8112 5.89208 30.9791 0.00454203 -0.0189331 -0.00869558
1350 5 2 34.4334 10.4746 27.9461 -0.00287741 -0.0139347 -0.0171032
1111 4 2 46.0306 19.4887 46.5679 0.00273341 -0.00295671 0.027382
208 1 1 40.3623 19.3596 32.825 0.00186444 0.000769544 0.00552467
573 3 1 38.7505 15.6934 33.8779 -0.0023286 -0.00765675 0.00576705
1213 5 1 37.6958 19.4796 37.8781 -0.000726956 -0.00261418 0.00780121
219 1 1 42.9924 11.8656 36.5561 0.00142419 -0.00799712 0.00533428
455 2 1 38.0677 19.1254 32.8683 -0.00360104 -0.000180341 -0.000109277
1233 5 4 43.0775 17.5939 37.0491 -0.0011578 -0.00321294 -0.000259592
2549 10 1 34.0091 20.5329 39.119 -0.00906585 -0.00182832 0.00500582
2498 9 2 46.0905 26.6791 34.6704 0.0147219 0.0123827 -0.00297917
1930 7 2 48.7037 6.23859 50.6189 0.00338877 -0.0267539 0.032556
394 2 3 45.1584 19.2443 38.712 -0.00197002 -0.00324512 0.00657381
155 1 1 48.2249 24.2169 35.7351 -0.00227137 0.00647631 -0.000476044
2673 10 1 53.2086 21.2038 35.5617 0.002295 -0.000433371 0.00296219
1491 6 3 51.206 13.9272 35.1187 -0.000972728 -0.00513541 0.000656018
2573 10 1 52.6764 19.1887 34.3212 0.00462847 -0.000455831 -0.00334659
650 3 1 51.6035 20.7374 32.1491 -0.00147966 0.00133157 -0.00154445
2196 8 2 50.4688 32.5716 21.078 0.00457744 0.0321414 -0.0219417
2451 9 1 56.2122 18.8419 35.3423 -0.00311962 -0.00273658 -0.00401323
623 3 3 57.2904 15.3143 32.7465 0.0035889 -0.00193313 -0.00214015
20 1 1 53.8841 14.6798 33.4258 0.00476999 0.00142683 -0.00135461
1775 7 4 55.6967 19.643 34.3973 0.00410621 -0.00190043 0.00148961
61 1 4 53.8292 18.8814 34.5636 0.000521916 0.000266589 -0.000652179
2685 10 3 52.7383 19.476 31.5241 -0.00300043 0.000208659 -0.00614655
750 3 1 58.7905 20.0062 30.8461 0 0 0
313 2 1 58.0347 20.8091 31.681 0 0 0
1856 7 1 54.1247 17.9771 33.5702 0.00597315 -0.00298801 0.00261549
1803 7 1 1.71544 22.9033 30.2018 0 0 0
629 3 1 2.96315 26.4085 36.339 0 0 0
773 3 1 2.36149 29.3017 34.3872 0 0 0
654 3 3 1.66108 30.0107 34.3251 -0.0060157 -0.00214779 -0.0013329
1967 7 2 58.4512 29.8656 33.2013 -0.00507975 0.000286178 -0.00841196
277 1 2 56.856 26.1591 30.2303 -0.00868836 0.00588945 -0.0106156
2030 8 1 7.67925 26.9129 30.3097 0.00802324 0.000809746 0.00352725
2170 8 1 14.3772 27.243 34.2163 0.000443766 0.001286 0.00354991
1492 6 4 11.301 24.7541 39.2062 -0.00334067 -0.00210679 0.00875083
361 2 1 14.0754 20.1493 36.9329 0.00299347 -0.00689869 0.00384822
1404 5 2 4.81222 35.5126 33.9153 -0.00916837 0.00442655 0.0356873
256 1 2 10.7825 35.4925 30.6647 0.0115659 0.0464897 -0.0382522
2187 8 4 14.1925 24.0668 32.3084 5.26264e-06 -0.00835162 -0.00439049
835 3 2 17.4792 38.2559 48.9747 0.00250512 0.0207245 0.02357
2200 8 2 36.2948 33.2499 42.5288 0.0339388 0.00883024 0.019026
1450 6 1 17.1681 26.2678 30.9225 -0.00149398 -0.00174469 0.00186353
1796 7 4 16.8081 30.112 32.5113 0.00290391 0.00743719 -0.00315289
164 1 1 16.363 24.4485 34.6725 -0.00223986 0.00118646 0.000553795
2542 10 1 18.8258 28.1677 38.553 0.000593303 0.000615693 0.00374999
709 3 1 23.7864 21.0832 31.857 0.0127861 -0.00381318 -0.00813062
641 3 1 19.1066 22.291 32.207 0.00369876 -0.00191614 -0.00749676
2468 9 1 28.9148 19.8581 35.6584 0.004914 -0.00624156 -0.00116214
1134 5 4 32.9239 20.341 25.7868 0.00803387 -0.00939634 -0.0100898
384 2 1 25.9906 24.996 35.4742 -0.00129646 -0.000578261 -0.00220798
2485 9 2 28.8088 20.6234 34.2394 -0.000384293 -0.0114658 -0.00653968
2730 10 4 35.9229 25.5313 35.8038 0.00312625 0.00189377 0.00366144
2427 9 4 38.2686 23.7263 30.8164 0.00225688 -0.0013853 -0.000194478
197 1 1 37.2053 30.9926 35.6022 0.00142257 0.00222982 -0.00136371
356 2 4 33.1572 27.6322 34.2713 -0.00542323 0.00116434 -0.000813848
2230 8 2 28.85 27.4812 27.9719 -0.0116163 0.00345683 -0.0126317
229 1 2 34.4093 32.376 43.8733 -0.0131088 0.00763405 0.0226356
1159 5 1 39.2089 26.4281 35.4898 -0.00356994 -0.00160161 0.00499809
1474 6 1 39.3497 24.9617 36.3295 0.00117849 -0.00140325 0.00120966
1277 5 4 40.4439 23.8325 30.1603 0.000767059 -0.00323086 -0.000699031
121 1 1 42.1984 28.5167 31.9593 -0.00207163 0.00343797 -0.000122026
1789 7 1 40.1745 22.535 34.3708 -0.00545401 -0.00113136 0.00183587
1736 7 1 47.6806 29.4211 34.1381 0.00233767 0.00762308 -0.00138652
1131 5 1 51.7304 22.5075 31.0191 -0.00132374 -0.00048592 -0.00285126
1515 6 4 50.1746 24.1477 30.4132 -0.000904087 -0.00304908 -0.000540433
2012 8 4 47.8148 25.4075 30.2963 0.00553197 -0.000183406 -0.0074141
510 2 2 3.24293 27.2341 43.8159 0.0198017 -0.0152282 0.0123042
2176 8 1 56.4699 23.9505 32.6446 -0.00324363 -0.00312899 -0.000673346
624 3 4 54.6819 24.7203 31.8893 -0.00432447 0.000955819 -0.000704816
2759 10 1 0.622221 25.6137 37.512 0.0019776 0.00037361 0.00482573
701 3 1 54.3012 25.5283 36.6944 0.00196241 0.00500222 0.00214087
1720 7 4 54.5257 25.8827 33.6186 -0.00328269 -0.00213575 0.00293839
2386 9 1 56.3335 29.014 33.207 0.00245605 -0.0013343 7.39089e-05
1362 5 2 2.76874 35.9095 31.706 0 0 0
659 3 1 1.05873 36.2423 33.7183 0 0 0
628 3 1 0.310743 35.7845 32.4359 0 0 0
343 2 4 1.91738 35.2796 35.7854 0 0 0
545 2 2 1.41483 33.4484 32.4153 0 0 0
1473 6 1 6.0734 34.8762 37.8872 0.0133821 0.00534844 0.0031798
1962 7 2 56.2603 35.9005 42.3998 -0.0166514 -0.00279506 0.0077702
550 2 2 15.0388 30.9991 41.5059 0.00707124 -0.00764843 0.0153729
2029 8 1 15.7036 33.1876 39.7909 0.00438367 0.00580935 0.0052109
186 1 1 12.351 31.1142 30.7097 -0.0017912 0.00200296 -0.00111951
842 3 2 23.9342 23.2936 45.5523 0.0124354 -0.0264617 0.0178957
1281 5 1 17.1873 37.7619 27.7747 0.00303368 0.00336985 -0.00558941
103 1 3 16.7691 28.867 38.2061 -0.00314265 -0.00753334 0.00607855
2616 10 1 20.6831 37.7144 32.5208 -0.000286659 0.00389858 0.0014989
2443 9 1 20.6453 35.3932 30.8713 0.00286939 -0.000132946 -0.00054083
2471 9 4 15.8418 28.474 33.9468 0.000437577 -0.00358214 0.00064291
1286 5 1 15.8357 30.2966 32.3722 -0.00184724 -0.00232979 -4.83667e-05
1583 6 1 17.1322 37.0594 35.0996 -0.00293717 0.00176472 0.00188621
407 2 3 18.8765 37.142 33.2412 -0.0022306 0.00184933 -0.00142291
2568 10 4 13.0944 34.4029 34.1772 -0.00722675 0.00221532 0.00209043
1503 6 1 18.1188 32.5504 37.1586 -0.00356696 -0.00123807 0.000369416
2512 9 2 19.1817 28.8111 41.9061 0.00662427 -0.0106105 0.00909114
1370 5 2 11.3313 34.7846 25.1549 -0.0143536 0.0046795 -0.0159788
1409 5 2 21.774 36.9443 24.2404 0.00331837 0.0135229 -0.0215214
2663 10 3 31.3682 31.9912 26.508 0.00506994 0.00265555 -0.00834762
2377 9 1 28.0633 33.247 28.4079 0.00209137 -0.0017992 -0.00704562
2357 9 1 25.0795 39.3128 35.0553 0.0020514 0.00729797 -0.00495383
1465 6 1 35.3796 33.4963 31.5073 0.00792031 0.00162411 -0.00346944
2552 10 1 35.6732 36.9588 33.8613 0.00327016 0.00204931 0.0026823
1497 6 1 28.1477 37.3348 37.7391 -0.00565608 0.00347934 0.00505818
2308 9 4 37.6414 32.3416 36.377 0.000831784 -0.000582326 0.0017644
2198 8 2 30.7706 39.7786 24.1543 -0.00597372 0.00680801 -0.0240796
995 4 4 45.8729 31.2891 30.1855 0.00205678 -0.00171452 0.000270067
331 2 1 42.0959 29.9147 34.6904 -0.00163788 -0.00745977 0.00756125
1263 5 1 41.5043 36.2303 33.7097 0.000117907 0.00671111 -0.000130702
499 2 1 41.0118 30.2374 33.4494 -0.00334514 0.00039287 -0.00264373
1189 5 4 43.3832 34.0822 39.6247 0.00171669 -0.00163237 0.00778756
594 3 4 38.778 33.4951 31.8002 -0.00195413 0.00297868 -0.00122757
1221 5 1 37.2201 32.4907 35.6689 -0.00151746 -0.000709511 -0.000435349
1425 6 3 42.4445 34.3486 38.1459 -0.00181677 -0.00277607 0.00229042
1927 7 2 41.0529 27.8545 29.1114 -0.00426389 -0.00718096 -0.00594379
1051 4 4 36.6214 33.6812 32.611 -0.00693014 -0.00406853 -0.00212583
2771 10 2 34.9261 33.8326 36.6543 -0.00644455 0.00197754 -0.00112995
1925 7 2 40.8264 23.1907 22.1532 0.00654906 -0.0163687 -0.0174042
2208 8 2 44.1624 32.1793 37.9569 -0.00749842 -0.00234655 0.0122643
2057 8 4 44.2788 35.8866 36.2873 -0.00312562 -0.000751529 0.00157913
1418 6 4 51.8439 31.3736 31.1511 0.00141645 -0.00010593 0.00117929
1609 6 1 52.7667 36.3537 31.2292 -0.00194961 0.00148513 0.00133739
2395 9 1 47.1762 32.7746 38.4573 0.00373337 -0.00889792 0.00208217
1511 6 1 0.520495 33.3457 32.0493 0.00154385 0.000864086 0.00315055
1665 6 2 55.0036 28.1972 31.8655 0.0255052 0.00304917 -0.00318529
2558 10 1 54.8177 32.4841 31.3858 -0.003818 0.0026207 -0.00213902
1499 6 1 54.7967 29.5598 31.8351 -0.000766194 0.00445299 -0.00105489
1918 7 2 58.9308 33.6907 33.2768 0 0 0
1725 7 1 53.2958 29.9101 37.9989 0.000620655 -0.00146432 0.00206361
1864 7 1 0.899078 41.8298 36.3928 0 0 0
661 3 1 1.98329 43.8388 37.4809 0 0 0
1243 5 1 58.473 41.1976 38.4316 -0.00792535 -0.00744047 0.00871313
700 3 1 14.659 42.6622 36.3304 0.00419731 0.00391727 0.00615516
2449 9 4 11.6722 42.8842 29.7658 0.00523337 -0.000750954 -0.00189816
1921 7 2 10.5723 42.4126 37.684 0.00396485 -0.00151671 0.000925805
1813 7 1 13.8037 43.1272 36.9361 -0.000946711 0.00315309 0.000889344
1345 5 1 19.2714 39.2025 33.5923 0.0066598 0.000437599 0.00229993
2517 9 2 16.7768 28.2883 29.588 -0.00773837 -0.0228686 -0.00335556
1964 7 2 16.5324 33.9778 37.1043 -0.00692231 -0.0136231 0.000765112
1706 7 1 16.6841 41.7462 32.548 0.00207535 0.00286379 -0.00786546
2186 8 1 25.0635 42.8761 34.1789 0.0017854 0.00224588 0.00415251
2515 9 2 21.7451 42.7865 28.7868 -0.0162085 -0.00329294 -0.0136239
2623 10 1 32.4993 35.9014 32.3905 0.000966312 -0.00463821 0.0018578
31 1 1 29.7927 44.9976 30.255 -0.00146978 0.00543021 -0.00145987
2592 10 1 32.9774 36.8617 36.8067 0.00293378 -0.00430885 0.00132835
2691 10 1 36.0068 43.4348 30.9169 0.00321678 0.00516943 -0.00653855
1383 5 2 47.8959 35.114 37.2571 0.021471 -0.01309 0.00380589
2313 9 1 35.91 40.2765 33.859 0.000917327 0.000762864 -0.0058512
2403 9 3 41.4453 40.6575 41.5855 0.00273537 0.00071473 0.010485
78 1 1 38.2921 36.0576 32.5482 -0.000855319 -0.00621365 -0.00101424
793 3 2 40.2047 42.683 30.1148 -0.00493127 0.00101547 -0.00721722
1858 7 1 47.2273 44.135 32.393 0.00449551 0.00140801 -0.00127093
469 2 1 48.6113 43.7862 30.574 0.00185031 0.00299896 -0.000466929
1614 6 4 45.4248 39.562 38.4731 -0.00123338 0.000793355 0.00301363
370 2 1 43.6836 44.0123 32.0045 -0.00279109 0.00139416 -0.00195152
2600 10 1 50.341 39.9078 32.0339 -0.00246555 6.00174e-05 0.000750739
1929 7 2 54.6342 33.4732 28.8885 0.00594117 0.00535714 0.00501111
780 3 2 53.7668 40.7193 32.3355 0.00653099 0.00357918 -0.00039711
660 3 4 54.8762 39.1892 35.8275 0.00565993 0.00279587 0.00326121
1392 5 2 57.6728 43.5526 31.6576 0 0 0
1865 7 1 59.4743 39.6298 35.2632 0 0 0
1882 7 1 59.775 42.2264 33.3476 0 0 0
1265 5 1 53.8396 42.063 31.9169 0.00233387 0.00055127 0.00250576
1248 5 1 57.4384 41.7812 34.7491 0 0 0
2205 8 2 57.2404 40.6157 36.8785 0 0 0
417 2 1 52.1617 43.7278 36.3598 -0.00602759 -0.00162861 -0.00720422
1249 5 1 53.9463 42.1408 37.871 -0.00138253 -0.000714297 0.00310419
1517 6 1 57.468 44.1465 35.6406 0.00237702 -0.000682031 -0.00298356
282 1 2 58.7053 51.9244 31.5748 -0.00695319 0.0139332 -0.00853712
1081 4 2 22.2007 59.3438 35.8741 0.016001 0.0180153 0.0106421
2503 9 2 9.2586 52.0504 35.9496 -0.0101489 0.00354666 0.00960023
1890 7 1 15.0854 48.036 29.782 0.00135218 0.0042915 -0.00158453
1842 7 1 12.0603 49.9649 31.6095 0.00126654 0.00504481 -0.00179193
2495 9 2 7.45091 42.2676 38.4858 -0.0183566 0.0130974 0.0153515
1995 8 1 6.96727 48.8309 29.8452 -0.00692192 0.00593773 0.00536585
745 3 1 13.651 47.086 36.4233 0.00727991 -0.00229297 0.0069933
1391 5 2 6.27096 49.7854 38.5795 0.0424367 -0.00197966 0.0434722
1928 7 2 22.4468 40.5672 34.0733 0.00432251 -0.00970357 0.00811643
2785 10 2 20.0091 39.5883 41.3698 -0.00132078 -0.0124042 0.011704
329 2 1 16.6038 47.3773 33.0544 -0.00510456 0.00303245 -0.000705817
2095 8 1 21.542 46.8091 33.5994 0.00041187 -0.00462718 0.00320232
44 1 1 16.7964 49.1305 30.6445 -0.00372755 -0.00239914 -0.000793263
1843 7 1 23.4906 48.2154 36.9145 0.00296181 -0.00834972 -0.000184574
304 2 1 15.3264 50.8531 29.1813 -0.00408261 -0.00304985 -0.00171142
1311 5 1 22.2836 46.4304 28.3482 0.0029696 -0.00217177 -0.00982323
498 2 2 27.7629 58.207 43.8746 -0.000416953 0.0219888 0.015623
609 3 1 27.7494 54.0817 39.7842 0.00486285 0.00682916 0.00850382
1432 6 1 27.7242 46.7074 34.7677 0.00399274 0.0011485 -0.000358686
606 3 1 25.4116 51.6906 33.6466 -0.00441832 0.00521034 -0.000108716
458 2 1 26.816 47.1764 36.2582 -0.00146306 -0.00478528 0.00107109
1445 6 1 32.4398 48.3829 33.1241 0.000340377 -0.00698721 0.00234228
560 2 2 33.6936 55.7768 29.8396 -0.00757465 0.0210106 -0.015055
2171 8 1 32.2315 43.7382 34.7748 0.00308901 -0.00475824 -0.00427843
2142 8 1 42.8807 47.7524 31.6054 0.00488396 0.00513485 0.00178685
1756 7 1 43.8455 47.0497 34.6489 0.0027258 0.00279436 -0.00167001
2681 10 1 37.1393 47.539 35.5805 -0.00549261 0.00264965 0.00036527
1257 5 1 43.6083 52.5022 29.7845 0.00712816 0.00184776 -0.000844232
2609 10 1 41.8801 45.1343 35.5255 0.00272722 -0.0111169 0.00158487
1007 4 1 45.4429 47.765 33.4999 0.0100478 -0.000270974 -0.0059927
338 2 1 42.3023 51.8598 29.0616 -0.00138436 0.00320611 -0.00906299
1871 7 1 51.7958 49.869 34.2148 0.00374561 0.00324025 -0.00135971
1067 4 1 44.6912 51.7562 37.086 -0.000855437 0.00830589 0.000783602
77 1 1 45.4986 50.2913 32.4429 -0.00511023 0.00798983 -0.00198809
113 1 1 49.731 49.5209 30.8831 -0.00305451 0.000324599 0.000284085
888 4 1 47.0739 47.9836 35.5185 -0.00288418 -0.00120089 0.00163974
1241 5 1 52.1381 45.3837 37.2529 0.00453363 0.00115669 -0.0013985
2194 8 1 51.6002 46.9621 32.8746 0.00138502 -0.00261964 0.00492643
2265 9 1 43.9383 50.4119 32.721 -0.0030366 -0.00228301 0.000593184
527 2 2 54.622 47.2063 27.1747 -0.0219148 -0.00242946 0.0109283
2589 10 1 54.0801 50.4544 30.918 0.00056234 -0.0031304 -0.000784422
2122 8 4 56.089 47.6642 36.8359 -0.00174987 -0.00244961 0.000286076
333 2 1 51.7106 45.2 28.716 -0.00168032 -0.00560163 0.00119284
2465 9 1 58.6091 52.4006 35.3635 0 0 0
1315 5 1 57.5902 46.5356 34.8739 0 0 0
1405 5 2 59.5893 49.0643 35.8723 0 0 0
1338 5 1 0.110893 59.5085 36.0043 0 0 0
2486 9 2 3.42548 55.2675 36.0403 -0.0136373 -0.0132066 -0.00704959
2391 9 1 15.7284 54.9697 38.3196 0.00170855 -0.00531412 0.00868766
2448 9 4 12.6421 54.2462 30.3232 0.000947634 0.00173127 -0.000774615
2384 9 1 9.52584 55.198 32.8692 -0.000733622 0.00143479 0.0014227
911 4 1 11.2503 58.7817 32.5999 0.000674892 0.000183304 0.000207612
1592 6 4 11.4886 52.3159 34.8304 -0.00397992 -0.00464641 0.00188525
1636 6 2 22.6078 48.8649 27.7914 0.0197403 -0.00837987 -0.0167795
2793 10 2 15.5576 2.15434 35.0819 -0.0111181 0.013063 0.000800604
1979 8 1 19.7664 59.9473 34.961 0.00111952 0.00398844 0.00316653
2267 9 1 15.5614 58.9554 35.7458 -0.000928211 0.000845789 0.00153798
743 3 1 20.3395 55.7674 29.876 -0.00288513 -0.00322821 -0.00144186
1652 6 2 26.7644 55.0781 41.244 0.00565396 0.000967347 0.0221087
1287 5 1 28.2091 2.09103 31.0999 0.00617715 0.00597866 -0.00155981
2316 9 4 26.252 56.4696 35.5686 -0.000375339 0.00288329 0.00254034
1326 5 1 22.2189 53.7545 37.3939 -0.00310908 0.000147673 0.00127546
1044 4 1 28.1298 55.0798 29.9364 -0.00193283 0.00112278 -0.00690555
1073 4 2 26.4176 7.92503 22.1091 -0.00133832 0.0180908 -0.0252989
2783 10 2 25.7281 56.4795 41.306 -0.0157587 9.55977e-05 0.0200819
435 2 1 35.3876 56.4293 31.3461 -0.00135273 -0.0043017 -0.000202786
23 1 1 43.9818 51.9297 30.6645 -0.00164429 -0.00518887 0.00133535
787 3 2 54.5255 52.6838 35.2062 0.0109468 0.00993718 0.00846142
2327 9 1 40.0961 54.1527 26.9837 0.00246308 0.00254622 -0.00628764
1818 7 4 44.2796 57.165 33.761 0.00336928 0.00486574 0.000373468
2076 8 1 43.8608 52.9601 37.3538 0.00882874 -0.00197457 0.00235961
718 3 1 40.4654 58.3229 39.3127 -0.00310576 -0.00124183 0.00629992
754 3 1 40.5226 55.7672 30.1894 -0.000195523 -0.00298664 -0.00208701
118 1 4 38.4055 55.7302 38.7972 -0.00477966 -0.00026682 0.00511158
2484 9 2 41.7701 1.34046 37.7866 -0.00778941 0.00715063 0.00877384
170 1 4 50.411 57.6951 30.2752 0.0027152 -0.00284426 1.74984e-05
1542 6 1 50.2392 56.4828 38.0892 0.000880426 -0.00518696 0.00179282
1149 5 1 48.2917 56.6844 34.5296 0.00096182 0.00794525 -0.000664058
141 1 1 50.6014 55.9498 32.1605 0.00169219 -0.00312509 -0.0009634
2692 10 1 51.8858 53.7831 34.9318 8.51138e-05 0.00500885 0.00677997
1827 7 1 51.2233 55.8123 36.6681 -0.00290166 -0.0045827 -0.0042854
1347 5 1 46.7255 54.9403 31.3204 -0.00411809 0.000143612 -0.00263751
1216 5 1 52.0035 54.2294 32.3036 -0.0035683 -0.00303373 0.00510076
945 4 1 49.9647 54.4898 34.9819 -0.00220259 -0.00176714 -0.00287028
2816 10 2 1.39387 52.1596 38.1712 0.00542701 -0.00940939 0.0109885
1025 4 1 53.7654 56.6386 30.5805 0.00503373 -0.00141641 -0.00354771
975 4 1 53.2784 59.5688 32.116 -0.000942677 0.00367412 0.000806818
1303 5 1 53.5931 56.6625 29.9533 -0.0039024 -0.00612514 -0.00276453
1153 5 1 55.666 53.4555 31.5375 0.00466899 -0.00244575 -0.00180481
1644 6 2 57.1409 56.2734 35.4085 0 0 0
1255 5 4 56.4457 56.6015 32.8961 -0.000880667 -0.00197833 0.00168249
1096 4 2 53.649 1.92223 33.2807 -0.0120921 0.000633749 0.00606014
2668 10 1 14.4735 2.8983 47.3366 -0.000529137 -0.00134756 0.00480114
204 1 4 7.56948 59.0312 40.377 -0.00325352 0.00074108 -0.00425065
2456 9 3 17.0745 3.26555 38.8238 0.0121483 0.00549385 -0.00181863
2807 10 2 13.506 0.684206 32.9888 0.000433862 -0.000415973 -0.0129455
1952 7 2 12.5667 8.19473 40.5569 0.0106668 0.0104773 -0.00561715
205 1 4 15.6147 4.82297 42.7941 -0.00127911 -0.00121974 -0.000776523
1035 4 1 16.018 3.8379 45.5443 -0.00297921 0.00236052 0.00329218
666 3 1 14.3292 5.91739 36.645 -0.00583624 0.00473099 -0.00179013
1615 6 4 17.7912 7.96849 40.1207 -0.00436797 0.00447433 -0.00460497
1028 4 4 21.4311 2.33456 46.0967 -0.00156598 0.00239807 0.00340343
561 2 2 37.43 53.7249 43.7403 0.0289867 -0.0134185 0.0122776
1000 4 1 24.5146 57.5568 39.5307 -0.000412581 -0.00580883 0.00181703
2318 9 1 25.3429 2.60451 41.4922 -0.000177208 -0.00415607 0.00316295
682 3 4 27.3018 59.3838 39.7695 -0.0037799 -0.00351402 -0.0016534
1494 6 1 28.9871 6.04444 40.9029 -0.00134092 0.00355633 0.000967052
2178 8 4 31.7607 2.00953 40.6043 0.00465642 -0.00565347 -0.00474393
2516 9 2 25.8024 6.56725 36.5006 0.000656591 0.0116379 -0.014357
807 3 2 20.2472 0.39765 27.5276 -0.0171309 -0.0075637 -0.0323019
1573 6 1 33.2715 8.32988 40.8004 -0.000173404 0.00592505 0.00235619
451 2 3 30.112 5.52049 40.3412 -0.00134626 -0.0026958 0.00174603
2805 10 2 38.6273 0.729115 33.6719 0.0113571 0.000907424 -0.00904756
2770 10 2 44.7919 51.0198 39.8042 0.0223061 -0.0184607 -0.00944253
2151 8 1 47.2578 2.44528 43.4034 0.0109476 -0.00217657 0.00993308
2731 10 4 46.7511 6.87754 44.1754 0.00502482 -0.000585661 0.00518112
310 2 4 39.1712 2.58269 37.6311 -0.00128691 -0.00163324 -0.000635723
1022 4 1 43.9972 3.81997 37.5085 0.00178536 -0.00568294 -0.00543659
2393 9 1 44.1486 6.89074 38.9538 0.0135461 0.0083558 -0.00282029
314 2 1 37.0783 5.83072 44.4659 -0.00164397 0.0065273 0.000837183
1396 5 2 53.242 6.43925 41.266 -0.00209327 0.00978569 0.0247457
1762 7 1 42.9973 1.57643 41.5141 -0.00568789 0.000284949 0.00488379
1758 7 1 46.6228 59.8227 42.0113 -0.00351762 -0.0032022 0.00276218
753 3 1 47.8366 3.99214 38.7951 -0.00798753 -0.00216138 -1.78911e-05
1227 5 1 48.6729 57.3373 39.6515 -0.00025655 -0.0055065 0.000227933
1003 4 1 47.9796 1.68303 35.8548 -0.00206015 0.000613042 -0.00420727
265 1 2 37.1542 4.70278 38.7751 -0.0197349 0.00472756 -0.0109106
756 3 4 50.3186 2.20033 40.7207 -0.00233266 -0.00396381 -0.00437894
581 3 4 59.3124 4.25335 42.6048 0 0 0
1435 6 1 58.8165 16.3774 41.4145 -0.00674595 0.00606899 0.0018086
1648 6 2 1.02459 10.0668 41.493 0 0 0
2437 9 1 7.70676 9.95781 42.8193 0.0203392 -0.00612814 0.00347701
2537 9 2 5.22208 9.12192 37.8162 0.0243477 0.0108443 -0.0308972
1819 7 4 7.65122 13.7881 44.1074 -0.000313404 -0.00317145 0.0033139
776 3 1 59.0695 11.961 42.0464 -0.00217374 0.00477977 -0.0035867
734 3 4 12.4114 16.8878 39.4885 0.00395 0.00428245 0.00289422
2361 9 4 11.6049 7.91584 37.7018 0.000947657 -0.0051637 -0.00470766
735 3 4 8.86389 15.0387 39.1131 0.00269255 0.000855779 0.00268565
789 3 2 8.88873 10.7208 46.3552 0.00356342 -9.36258e-05 -0.00280668
1675 6 2 9.86612 13.4339 42.845 0.0301579 0.0145773 -0.0209251
812 3 2 24.5891 8.98416 46.5156 -0.00595991 0.0026371 0.0114601
2598 10 4 28.5549 15.7987 39.9762 0.00625016 0.00253925 0.00488025
1581 6 4 28.3591 11.3205 39.2916 -0.00101478 0.00616967 -0.00527098
2080 8 1 22.3279 16.0454 36.9799 -0.000512677 0.00708646 -0.00452321
1701 7 1 27.6369 8.31224 40.0491 -0.000362411 -0.00245957 0.00159974
1589 6 1 24.8343 6.98183 45.8005 -0.00229062 -0.00263816 0.00347967
2372 9 4 26.571 9.22607 39.5046 0.00238133 -0.00507532 -0.00526646
1965 7 2 36.7774 22.7142 44.8893 0.0196998 0.0245012 0.00732842
2006 8 1 28.6687 9.55102 42.1483 0.00311835 -0.00198213 -0.00530837
357 2 1 38.6454 8.03964 39.1177 0.00889773 0.000203478 0.00112517
1719 7 1 29.8993 13.8241 43.7171 -0.00516636 4.4835e-05 -0.00030276
1089 4 2 24.1546 12.3014 47.8744 -0.0137792 0.000946004 0.00616666
875 4 1 34.4132 16.7911 39.391 -0.00419739 0.0036745 -0.000416504
806 3 2 28.7946 7.12551 38.1889 -0.00345925 -0.0108114 -0.00780454
706 3 1 44.3241 13.9219 42.8502 0.0112645 0.0013377 0.00168073
2413 9 1 44.5181 7.10882 42.646 0.00308748 -0.00312336 0.00204374
24 1 3 41.8212 14.9277 38.6835 0.000523229 0.00127116 -0.000580338
137 1 1 45.3578 8.33719 39.8174 0.00107478 -0.00138424 -8.59476e-05
733 3 3 38.5738 9.2253 45.5091 -0.000336031 -0.00138009 0.00145922
202 1 1 37.9705 9.87508 40.353 -0.00413236 0.000926645 0.00130717
108 1 1 38.2657 13.2648 40.7284 4.40936e-05 -0.00158483 -0.00152315
1282 5 1 43.8999 13.6638 37.6737 0.00160545 0.00381838 -0.0073979
1129 5 3 41.3879 11.2633 42.7301 -0.00127722 -0.00601422 0.000733207
1042 4 1 48.1202 17.913 43.676 0.0129185 0.0102929 -0.00262544
2102 8 1 46.3212 14.7532 42.0339 0.00806002 -0.000169907 -0.00458337
2760 10 2 40.7769 6.83417 42.2589 -0.00502393 -0.00598058 -0.00352801
80 1 1 46.52 16.2389 39.7587 -0.0013781 0.00603635 0.00192157
2229 8 2 43.7774 15.6771 37.2013 -0.0211625 0.00322697 -0.00696091
439 2 1 45.8631 15.794 39.9958 0.00028374 0.006174 0.00137584
2139 8 1 48.0796 7.09915 46.9012 -0.00295677 -0.0050999 0.00587805
354 2 4 50.8164 17.0555 40.3811 0.000224721 0.00591327 -0.000315849
493 2 1 51.3291 13.5859 41.036 0.00254584 -0.00140533 -0.00119766
1712 7 1 42.0009 14.7383 39.4407 -0.00787945 -2.56072e-07 -0.000485669
381 2 1 52.0005 12.1885 43.4691 0.00469074 -0.00206371 0.00174648
578 3 1 52.641 14.7834 42.499 0.000881698 -0.00797639 -0.000113908
1587 6 1 49.2633 7.23108 36.7435 0.00114244 -0.00232972 -0.00567286
165 1 1 51.1424 12.3279 38.9163 -0.00361975 -0.00330663 -0.000837786
748 3 4 52.2647 7.57131 40.8188 0.00180939 -0.0054925 0.00103453
2305 9 1 55.3155 14.4206 44.1471 -0.00535541 0.0045541 -0.00457231
892 4 3 59.1608 10.6337 44.33 0 0 0
147 1 3 53.7831 12.8004 39.5088 0.0024876 0.000352461 -0.0030916
327 2 1 57.2482 13.0119 42.8793 0 0 0
577 3 1 57.1791 10.0481 43.0406 0 0 0
1402 5 2 57.0913 13.1731 41.0622 0 0 0
907 4 4 58.9412 17.379 41.0861 -0.00755238 0.00133349 0.00320005
643 3 1 2.0668 16.1972 44.5643 0 0 0
1937 7 2 1.77328 21.4698 38.138 0 0 0
621 3 1 0.192656 20.0999 44.1103 0 0 0
758 3 1 1.89294 16.9795 42.4329 0 0 0
2241 8 2 25.5648 20.8771 34.6415 0.033985 0.0101661 -0.00590091
378 2 4 15.5711 21.6651 42.9335 0.00524933 0.00299282 -0.000158151
1534 6 1 14.897 22.6759 41.5871 0.00554136 0.00669278 -0.00192406
1559 6 4 11.9829 16.6224 36.1967 -0.00313094 -0.00207474 -0.00624217
2766 10 2 19.6962 19.2526 48.5091 0.00160456 -0.000408047 0.0200201
447 2 1 19.1382 16.1348 39.5934 0.00757015 -0.00335451 0.00268813
1431 6 1 14.7319 18.8591 41.7646 -0.00307574 0.00511508 0.00357221
1449 6 4 18.2407 18.6616 42.1419 -0.00160271 0.00549689 0.00350386
2107 8 1 20.0262 15.4719 43.3696 0.00058749 -0.00044495 0.00383021
2119 8 1 22.1193 21.8566 34.5158 0.000984567 0.000990084 -0.00612869
216 1 2 35.5588 20.3097 55.0034 0.0114282 -0.00331856 0.0251316
2103 8 1 31.7886 19.8459 46.5238 0.00631081 0.00328946 0.00583741
2000 8 1 29.8055 17.7024 43.7771 0.00320087 -0.00103488 0.00320615
612 3 1 23.3225 15.7111 39.6158 -0.0044414 5.56153e-05 0.0011325
1528 6 4 25.4782 19.0004 37.0099 -0.00311611 -0.00319448 -0.00656762
2794 10 2 17.0017 22.3277 36.2219 -0.0218346 0.00602476 -0.00340319
825 3 2 34.5812 20.1068 42.2828 -0.00215744 -0.000138957 0.0091273
831 3 2 30.1016 20.8879 40.9077 -0.0121016 -0.0024899 0.00518365
939 4 1 36.9635 25.5383 45.5141 -0.00074513 0.00698111 0.00142748
1237 5 1 30.5427 21.1818 39.6594 -0.00305737 0.00503918 -0.00749182
1340 5 1 38.3426 17.5647 44.6283 -0.00187685 0.00278023 0.00197311
428 2 1 39.5995 16.7816 42.0512 -0.0028953 0.00193121 -0.00266803
2699 10 1 41.5914 17.4924 40.5443 0.00438179 0.00196712 0.00305471
2157 8 1 42.8466 20.812 35.8311 0.00468449 0.00111507 -0.00466212
1294 5 1 39.5058 14.5236 41.7772 0.00133771 -0.00462739 0.00164896
605 3 1 40.1976 19.252 37.3206 -0.0030398 -0.000249228 -0.00562843
2202 8 2 52.6878 20.7126 36.6157 0.0290562 -0.00301586 -0.0162908
1942 7 2 39.5274 17.7585 43.5815 0.00252752 -0.0073122 0.0014098
154 1 1 39.7228 19.665 40.6273 0.00039544 8.94674e-05 -0.0069541
2266 9 1 50.9566 18.6189 43.5853 -0.001365 -0.00721094 -0.00243239
2155 8 1 50.6117 16.87 45.7235 0.00557489 0.000551469 0.0045482
1195 5 1 48.6982 19.8523 44.0772 -0.00202768 -0.00107949 0.0011066
430 2 4 49.7533 20.6938 40.5352 -0.00288042 -0.00217171 0.0027178
91 1 1 45.6701 21.5545 43.5362 0.000275616 -0.00066434 -0.000585302
942 4 4 50.3558 20.741 38.9127 -0.00252592 0.000456379 -0.00491993
631 3 1 52.2757 19.9265 41.854 -0.0017005 0.00280961 0.00134609
353 2 1 53.6295 17.4225 39.5952 0.000804862 0.00380496 -0.00324289
2735 10 1 53.2098 14.835 40.201 0.0021391 0.000399332 -0.00229436
12 1 1 54.8026 18.6782 41.5418 -0.00482006 0.00016951 0.00186738
1095 4 2 59.1007 16.1735 41.4651 0 0 0
2020 8 3 55.8407 20.1782 41.3544 0.00207166 -0.00272549 0.000318851
1839 7 3 13.6314 22.7663 46.6111 0.000981468 -0.00167687 0.00358499
2156 8 4 10.2003 21.0622 40.2933 8.29699e-05 -0.00676865 -0.00444316
1371 5 2 12.4974 24.0944 35.6058 0.00536516 -0.000264249 -0.0117795
1169 5 1 24.3621 30.733 39.5241 0.00777276 0.00365072 -0.00310332
330 2 1 27.4512 24.4246 42.9062 0.0115451 -0.00533576 -0.00114347
2248 8 2 28.3842 39.2095 30.7654 0.0181598 0.0256001 -0.0146138
1071 4 2 17.9657 18.6408 40.5679 -0.0135647 -0.0194283 0.00593074
989 4 1 22.3269 26.6606 48.1353 -0.00134628 0.00603594 0.0105918
7 1 1 26.9205 21.9088 41.9387 -0.00094687 -0.00639043 -0.00125884
1172 5 1 22.3861 27.2183 37.2922 -0.00137719 -0.00345542 -0.00109744
1983 8 1 35.9506 28.2893 46.5463 0.00336887 0.00771791 0.0045559
710 3 1 31.627 34.0506 43.2389 -0.0024964 0.00965647 0.000855848
1151 5 1 33.3316 26.6218 40.7705 -0.000983919 0.00379318 5.83286e-05
1777 7 1 36.5258 24.0188 43.4969 0.00192677 0.00109463 0.000253591
1160 5 1 37.6138 22.7655 42.6784 0.00725159 -0.00174557 -0.00137973
1999 8 1 34.9332 25.6354 35.3737 0.0038171 -0.000242744 -0.00600737
2351 9 1 36.2018 25.5156 35.7021 0.0030753 -0.00231059 -0.00468946
1512 6 1 28.7449 23.9063 44.1154 -0.00462122 -0.00425669 0.00147982
454 2 1 33.3437 27.6825 46.6781 -0.00440861 0.000276482 0.00388463
1502 6 1 31.0424 23.8545 40.8622 -0.00158862 -0.00249474 -0.00702398
798 3 2 34.2883 29.2852 46.5485 -0.00726443 0.00450518 0.0127494
876 4 4 41.5472 28.5856 45.8659 0.000955489 0.00463275 0.00195972
1594 6 4 39.3849 22.9606 39.4567 -0.00303151 -0.000622054 -0.00294616
56 1 1 40.653 21.3422 40.0943 -0.000597464 -0.00685118 0.000900846
1785 7 1 41.3567 26.0267 38.3008 -0.00531425 0.00127503 -0.00105742
1530 6 1 36.3324 25.2654 38.2413 -0.00402222 -0.00665977 -0.00320902
395 2 1 41.3143 26.85 38.9199 -0.00484813 -0.00338596 -0.00257692
543 2 2 42.1039 35.1465 36.8655 -0.00351131 0.0198531 -0.015167
843 3 2 30.602 19.175 33.789 -0.0171189 -0.00831156 -0.0143313
514 2 2 36.952 21.5758 41.3958 -0.00972002 -0.0119917 -0.00497998
2796 10 2 51.6968 22.3515 45.1473 0.00767019 -0.00264288 0.00604872
2445 9 1 52.1171 22.6755 36.8671 -0.00483761 -0.0016926 0.00343186
984 4 4 48.6301 32.2118 39.7898 0.00159695 0.00693344 0.00148317
360 2 1 46.5473 21.9159 39.5212 -0.00126589 -0.0031505 -0.00297217
253 1 2 47.088 22.8858 50.4 -0.0105284 -0.00281882 0.0148413
1912 7 1 48.581 18.7471 42.5358 0.0025884 -0.00829026 0.00241077
2529 9 2 48.573 25.2353 44.4653 -0.01097 0.00861999 0.00689055
1677 6 2 51.5501 25.3568 38.4978 0.0140279 0.0155896 -0.00609127
2005 8 1 54.72 25.9535 38.4817 -0.00150839 0.00127943 0.00184584
1845 7 1 56.2376 22.8362 41.1522 0.00119208 -0.000223486 -0.00206024
2226 8 2 47.6228 27.5219 37.3156 -0.0330785 -0.00384471 -0.0128453
1289 5 1 52.9099 28.2807 40.082 -0.00728744 -0.00257276 0.00121788
1493 6 4 53.2018 28.8905 39.1616 0.0014173 0.000252803 0.00188101
724 3 4 59.0058 22.6548 44.2952 0 0 0
75 1 1 57.2254 23.9881 39.5645 0 0 0
704 3 4 59.4134 25.906 38.4946 0 0 0
674 3 1 57.4307 23.4621 43.3912 0 0 0
649 3 1 55.7693 26.9493 44.3954 -0.00280417 -0.00251396 -0.00190841
2459 9 1 54.6714 29.0822 38.4353 0.00137682 -0.00128211 0.00131416
2466 9 1 57.8017 30.0039 38.2539 0.00227372 0.00229265 -0.000590784
2185 8 1 1.41645 34.9692 41.3811 0 0 0
657 3 1 58.4681 40.8717 40.0484 -0.00564105 0.00746248 -0.00133775
1643 6 2 59.1933 35.0711 44.2646 -0.0216498 0.0288759 0.00609888
2813 10 2 10.6526 28.6696 31.0082 0.0234868 0.0203284 -0.019167
713 3 4 11.5538 31.7968 42.3341 0.00487277 0.00248914 -0.00248911
359 2 1 10.3026 31.8872 41.4484 0.00204543 -0.00282382 -0.00238918
106 1 1 19.7975 32.6289 34.047 0.0114212 -0.00931851 -0.00883558
1565 6 1 9.18408 30.5126 41.7056 -0.00323919 0.000299941 -0.00574326
2590 10 4 19.9721 38.8645 39.6712 0.00152907 0.00374353 0.00177789
2274 9 1 19.104 39.6561 46.8758 0.00398675 0.00471923 0.00618565
117 1 1 21.0695 35.0125 36.392 0.00498714 -0.00258364 -0.00423366
819 3 2 17.3975 19.6892 31.3003 0.0044744 -0.0259562 -0.0152898
977 4 1 25.0824 30.6585 43.2677 -0.00185421 -0.00174206 0.00994996
915 4 1 29.9879 32.3055 40.2298 6.91368e-06 -0.000752201 0.000536238
653 3 1 25.6117 33.7302 34.6125 -0.00571284 0.00199481 -0.00858596
874 4 4 34.6404 35.8928 45.9483 0.0130134 -0.00289585 0.00382174
2184 8 1 28.3116 31.5787 42.6198 0.00223355 -0.00711191 0.00517037
884 4 4 32.8735 36.3317 44.8646 0.000310868 0.00563515 0.000993016
342 2 4 34.7862 30.9686 44.5308 -0.00339377 0.00062283 0.000114637
1814 7 1 38.0305 36.6469 33.4808 0.002105 0.00227678 -0.0156168
1855 7 1 42.2307 32.6846 42.2309 0.00396703 8.91491e-05 -0.00016841
740 3 1 40.5199 30.5788 37.7419 -0.00436886 -0.0012067 -0.00104153
2134 8 4 44.7703 37.2962 38.2373 0.00449484 0.00388829 -0.00582009
1606 6 1 43.8172 33.321 42.1833 -0.000527974 0.000157467 -0.00482076
1101 4 2 44.9822 37.0931 49.8888 -0.00241167 0.0117033 0.0118381
2149 8 1 49.7697 39.3512 45.1487 0.0055273 0.00402096 0.00414329
2412 9 3 48.1082 37.3403 42.2483 0.00345549 0.000790044 0.00207457
160 1 4 47.5091 37.8037 38.8288 0.00159415 0.00243397 0.0011665
1021 4 1 52.2326 33.5593 42.4753 0.00281369 0.00216065 0.000890912
640 3 1 42.7738 35.9025 42.2662 -0.00901243 0.00118555 0.00411081
1866 7 1 51.64 36.5196 41.5973 -0.00482842 -0.00327246 0.000177733
2475 9 1 44.964 31.056 42.0648 -0.00357729 -0.000594818 0.0019532
346 2 1 47.6351 37.4926 34.5259 -0.000242118 0.000987013 -0.00853228
368 2 1 46.251 35.0271 40.1297 -0.00131889 -0.00257595 -0.00351289
958 4 3 46.6032 29.7469 39.9551 -0.00100836 -0.00211163 -0.0064131
392 2 1 59.2871 34.7243 41.9564 0.0048448 -0.000562663 -0.00064591
448 2 1 57.0587 30.5013 40.8457 0 0 0
765 3 1 57.1039 30.7598 39.4036 0 0 0
1715 7 1 59.6588 35.6655 41.5287 0 0 0
344 2 1 58.1842 34.6087 39.5381 0 0 0
668 3 4 57.1884 36.0946 43.1908 0 0 0
2533 9 2 57.1615 32.7878 43.1117 0 0 0
1063 4 1 53.819 34.7871 43.7672 0.00167602 -0.00299442 -0.00314461
1215 5 1 54.2691 32.2978 40.6066 -0.00073447 -0.00541346 -0.000380234
1223 5 1 52.0381 33.9336 37.8691 0.00227659 0.00480683 0.00421195
418 2 1 56.8713 34.8009 43.6821 0.00521632 -0.00187217 -0.00266205
929 4 4 54.2016 36.4935 43.7298 0.00279366 0.00258246 0.00179781
100 1 1 1.99887 39.1006 42.0504 -0.00430815 -0.00558175 -0.00574011
1260 5 1 7.25108 40.6447 39.2396 -0.00517219 -0.00977253 0.00677427
1807 7 1 13.3947 37.7776 37.8531 0.0054054 -0.000541065 -0.00101017
2433 9 1 11.7566 37.8887 45.3028 0.00161625 -0.000636808 0.00234587
950 4 4 10.73 44.1074 41.7871 0.00651678 0.0022458 0.00218001
1053 4 1 9.20244 39.572 39.2534 0.0107817 0.00905645 -7.30087e-05
2093 8 1 18.5322 34.5919 39.9978 -0.000126376 -0.00623614 0.00418211
125 1 3 20.7598 34.5534 47.2665 0.00945849 -0.00904689 0.00591815
2335 9 1 17.323 41.0603 45.621 -0.000217197 0.000563509 0.00444601
379 2 1 17.3972 44.0637 41.4055 -0.00247864 0.00152623 -0.00124287
920 4 4 22.2074 42.6147 45.0075 -0.000985679 0.000606632 0.00162273
1244 5 4 33.4915 43.7989 38.2567 -0.00245994 -9.45455e-05 0.000830762
262 1 2 19.5135 35.701 42.1986 -0.0250282 -0.00503859 0.00550095
1496 6 1 36.2486 48.6836 40.8026 0.00667088 0.0111725 0.00225691
2727 10 1 37.9391 44.5993 47.2074 0.00352789 0.00448737 0.00527165
363 2 3 32.6185 42.7117 43.1935 -0.00140633 0.00119876 -0.000294863
1313 5 1 35.1959 33.4983 42.8558 -0.000499216 -0.0103053 0.00207171
1504 6 4 36.7961 43.1096 38.6601 -0.000952249 0.000413276 0.000418542
1316 5 1 36.7257 44.0801 46.2846 -0.000416972 -0.00113532 0.00271115
362 2 1 33.02 39.0879 37.8012 -0.00132814 0.000729984 -0.0088345
1275 5 3 39.8513 42.4031 46.7937 0.000681902 0.00755388 0.0095229
1582 6 1 36.7751 43.0258 41.3804 -0.00319424 -0.000629653 -0.00210806
376 2 4 40.2763 46.2093 42.6113 -0.00267244 0.00267953 -0.00152782
705 3 1 40.4439 40.3568 40.549 -0.00376638 -0.000198909 0.00199638
1801 7 1 43.0875 44.0962 40.3803 -0.00316279 0.000239984 -0.000857562
619 3 1 52.3925 42.264 37.8047 0.00479131 -0.0066039 -0.00105181
1945 7 2 47.5644 23.2563 48.217 -0.00498452 -0.0299373 0.00919875
1823 7 1 44.8462 39.9971 44.2144 -0.00255306 0.00200671 0.00321585
2342 9 1 51.9518 44.5807 40.875 0.0067705 0.00420417 -0.003031
2647 10 1 45.0734 42.6396 44.2423 -0.00480606 0.000169509 0.00346818
2021 8 1 51.4341 40.9715 41.7345 0.000572562 -0.000657158 -0.00243106
1016 4 4 48.777 39.2121 45.5184 -0.00349184 0.0019126 0.00354171
49 1 1 46.3761 42.3903 42.4219 4.09479e-05 -0.00371596 0.00110572
655 3 1 55.0826 39.9906 39.0474 -0.0045939 0.00268448 -0.0051595
1516 6 1 59.0043 38.6099 39.7297 0 0 0
1343 5 4 55.3539 40.4374 39.2842 -0.00213691 0.00364762 0.000841966
964 4 4 0.511772 47.1807 38.9016 0 0 0
443 2 1 0.491441 46.5048 43.0251 0 0 0
1232 5 4 1.77264 49.3338 44.6478 0 0 0
1204 5 1 0.18258 51.1464 39.8858 0 0 0
1908 7 2 1.51441 47.8743 43.3947 0 0 0
410 2 1 5.21967 48.3265 40.6595 0.00107594 -0.00441879 0.00407065
1933 7 2 10.1251 52.3271 40.5725 -0.00195998 0.00447589 -0.000804333
1377 5 2 18.039 49.2864 44.1237 0.00507874 0.00467593 0.00883555
2189 8 4 17.9402 51.4038 41.166 0.00093043 0.0033497 0.00521893
1507 6 1 17.9409 50.8431 39.1007 0.00576651 0.00444196 5.27337e-05
2299 9 1 16.021 47.8765 45.0278 -0.00229666 0.00118394 0.00290304
976 4 1 16.1841 51.7444 41.7229 -0.00322506 0.00134299 0.00191693
2374 9 4 22.5828 49.3572 35.1398 0.00136984 4.90978e-05 -0.00555549
956 4 1 16.9804 49.4318 41.3045 -0.00398727 0.00167331 0.00148553
339 2 1 14.7116 49.7348 37.1114 -0.00771995 0.00164636 -0.00187151
2090 8 4 21.1243 49.4987 41.0007 -0.000151966 0.0037509 -0.00353563
2810 10 2 35.57 56.9003 41.3671 0.0159944 0.0140905 0.00557149
569 3 1 24.298 47.179 43.4242 -0.00417133 0.00443173 0.00691403
2068 8 4 26.8513 49.3767 48.6125 -0.000129693 0.00409209 0.0122091
1482 6 4 27.4433 56.3122 38.0687 -0.000550356 0.0103727 0.000933027
1452 6 1 28.3414 49.7029 44.2265 -2.48532e-06 0.00127572 0.00348207
1027 4 1 27.3154 46.6009 44.0085 -0.00101342 0.000135719 0.00325114
152 1 1 19.5875 43.1987 35.9513 -0.00716415 -0.00442302 -0.00407178
2067 8 1 27.067 47.5344 44.4696 -8.26602e-05 -0.00443995 0.00377981
2225 8 2 28.4875 44.9953 39.5345 0.00400974 -0.00878406 -0.010637
421 2 1 33.7612 47.4693 42.0673 -0.0037763 0.00272292 0.000144065
1174 5 3 38.2724 50.7516 38.6131 0.00765965 0.00465328 -0.00377697
2479 9 2 46.6803 47.1444 49.2094 0.00853665 0.00271633 0.0228476
1669 6 2 47.273 48.384 51.5399 0.00921079 0.00138096 0.0258724
1427 6 4 40.8815 51.0952 40.3148 -0.00258588 0.00442455 0.00428005
614 3 4 40.919 44.8372 38.5034 0.00545534 -0.00407131 0.000944457
2458 9 1 41.3606 45.6066 42.4115 -0.00505567 -0.00109407 0.000382555
2237 8 2 42.2923 47.2725 40.0956 -0.00261426 0.0022846 -0.00916926
538 2 2 43.2584 47.4951 47.9827 -0.0141068 -9.64547e-05 0.00705407
1302 5 1 52.129 45.9485 38.5873 -9.89996e-05 -0.000581896 0.00016391
2047 8 1 46.7467 43.0505 38.3021 0.00356009 -0.0044486 -0.00616772
1180 5 4 51.6561 47.4356 41.7157 -8.59507e-05 -0.00206612 -0.00156826
400 2 4 47.9209 51.2099 42.6817 0.00177893 0.00361852 -0.000998035
367 2 1 47.6644 49.8214 36.5965 -0.00711732 0.00269558 -0.00424812
496 2 3 48.5915 45.7658 38.378 0.00233046 -0.00373349 -0.000989462
495 2 4 51.4729 48.9885 37.608 0.000286282 0.000236361 -0.00264607
837 3 2 48.0807 46.0132 47.2747 0.000631299 -0.0120426 0.00794609
1413 6 1 44.6005 48.3404 42.8605 -0.00213858 -0.00425758 0.000561216
2292 9 1 48.9789 51.3883 40.5032 0.00233132 0.0011751 -0.00593051
703 3 1 49.6459 48.6729 39.4889 -0.000165483 -0.00444601 -0.00813094
1750 7 1 53.5472 46.8326 42.2085 -0.0016232 -0.000316237 0.00244029
351 2 1 56.5318 46.1197 43.134 0.00722091 -0.000351342 -0.00306541
1342 5 3 52.5922 49.184 43.5417 0.00111842 0.00226434 -0.00184383
790 3 2 53.3598 49.5833 43.1166 -0.00432216 0.00570591 0.00313774
1410 5 2 58.3827 47.011 43.582 -0.00117529 -0.00656974 0.00238022
902 4 1 53.8527 51.5089 39.5631 -0.00423247 -0.00717421 0.00279885
2525 9 2 1.91974 43.7354 44.6893 0.0118957 -0.00633186 0.0043501
226 1 2 1.12038 58.0244 38.2396 0 0 0
583 3 1 0.505363 56.0555 41.4608 0 0 0
1137 5 1 0.145135 54.6386 43.7489 0 0 0
1166 5 4 1.60318 59.498 43.4285 -0.00467341 0.000845584 -0.000549105
1938 7 2 55.0502 56.5338 43.604 0.00730034 0.00416315 0.00276493
796 3 2 0.381909 56.7233 41.1102 -0.0170266 0.0274372 -0.00432865
51 1 1 6.66549 55.9158 37.0733 0.00160675 -0.00186634 -0.0014609
1256 5 1 7.0454 55.362 40.0434 0.000281465 -0.00991481 -0.00580475
2462 9 1 12.8929 52.2777 42.212 -6.30783e-05 -0.00783083 0.00173706
707 3 1 11.216 0.117301 41.2933 0.00297779 0.00608847 0.00217826
53 1 1 7.74316 54.9818 43.0049 -0.00306222 0.0037587 -0.00855429
851 4 1 9.47809 58.7482 44.5833 0.00589453 0.00513442 -0.00369915
2683 10 1 11.3555 54.5824 42.5582 -0.000579133 -0.00166675 -0.00472677
1680 6 2 16.6767 57.9273 47.998 -0.00310951 -0.00355502 0.0120995
2819 10 2 13.3419 2.54573 43.7426 -0.0149766 0.00583038 0.00927298
529 2 2 16.7916 52.5853 46.7942 -0.00246579 -0.0134288 0.00753682
852 4 4 17.9581 53.4973 40.2806 -0.00391158 -0.00781596 0.000922879
1970 7 2 26.2352 48.5958 47.9755 0.0119629 -0.0101754 0.00740757
866 4 1 16.7874 58.6209 33.6921 0.00227567 0.00545042 -0.00901229
890 4 1 17.4434 54.8167 45.3064 -0.00137408 0.000554358 0.00107631
349 2 1 16.0231 49.8134 41.2846 -0.00437065 -0.00561701 0.00017741
369 2 1 18.2899 51.563 40.3692 -0.00290762 -0.00548653 -0.000924903
883 4 3 20.434 55.3447 40.5755 0.00555524 -0.0050781 -0.00499546
923 4 1 18.5769 59.0681 40.4602 0.00289264 0.00475305 -0.00906117
1900 7 1 28.4759 53.1315 44.0829 0.00100652 -0.0043842 0.0108436
1394 5 2 33.9062 15.4999 38.29 0.0197065 0.0365165 -0.00407728
1885 7 4 26.2353 0.373748 39.5376 0.0015459 0.00398717 0.00143728
2317 9 4 27.3754 0.929917 41.5821 -1.91502e-05 0.00366092 0.00280121
2605 10 1 28.7351 51.905 40.7007 0.00141534 -0.00209333 0.0021141
2282 9 1 23.302 59.2612 44.7444 -0.000672132 0.00173509 0.00248459
1284 5 3 33.4507 54.259 42.9982 0.00742788 6.23548e-05 -0.00303648
2247 8 2 26.5647 57.9517 38.7898 0.00251982 0.00532489 -0.0118527
1824 7 1 38.5455 50.3053 40.6155 0.0120618 -0.012031 0.00565067
1923 7 2 32.3892 59.2721 47.5586 0.000446688 0.0111397 0.00857809
468 2 1 33.2927 59.5875 41.9348 -0.000134311 0.00521219 0.00135117
2724 10 1 36.8532 56.7305 42.71 0.00558455 -0.00305534 -0.00292985
2385 9 1 30.9047 53.5501 42.9832 -0.00649507 -0.00401433 -0.0031355
1769 7 1 37.5829 59.0115 40.9227 -0.00485736 0.00665086 0.0068747
294 2 1 42.3057 55.4853 42.0138 0.000240226 0.00547924 -0.000325224
283 2 3 40.9173 58.2686 40.9344 0.000458435 0.00588341 -0.000923542
2188 8 3 44.2148 2.13549 43.0377 0.00420584 0.0047066 0.00527543
1004 4 1 35.8604 54.0684 42.9901 -0.00506931 -0.00086675 0.0037162
171 1 4 48.0781 55.4939 39.6511 0.00233668 0.00543185 0.00106895
300 2 1 52.1543 59.8029 40.4396 -0.00269081 0.00126778 0.00170969
863 4 4 49.6952 56.7436 43.5046 0.00118402 0.000601807 0.00183008
470 2 1 52.2253 56.5416 42.264 0.00592281 -0.000265082 -0.00862604
2728 10 1 51.5254 55.1128 44.485 -0.00469872 -0.00476335 -0.00114965
563 2 2 55.0887 57.2715 39.1124 0.0164597 0.00598579 -0.00908277
1187 5 3 54.0226 52.9931 42.7207 0.00431729 -0.00363465 0.000344487
2254 8 2 57.7793 57.1031 43.2616 0 0 0
747 3 1 57.508 59.5107 38.8005 0 0 0
2582 10 1 58.172 58.5117 43.1038 0.00361702 0.00153221 0.00386134
574 3 1 1.64818 2.6524 50.6654 0 0 0
809 3 2 0.361214 6.06129 46.9851 0 0 0
8 1 4 12.3367 1.68139 49.69 -0.00270884 -0.00132381 -0.000320932
759 3 1 12.3586 1.70397 47.2314 -0.00419165 -0.00206254 -0.000128084
132 1 1 18.7937 7.95418 50.1576 0.00277904 0.0024187 -0.0014047
2366 9 1 21.4783 7.82632 52.6795 0.00161884 0.00285004 0.00486993
679 3 1 17.2708 1.56785 52.0297 -0.00466149 -0.00320962 1.20975e-05
2782 10 2 15.0049 11.0673 49.1574 -0.00884444 0.0134721 -0.00186701
1968 7 2 17.2452 5.39528 47.3054 -0.00954959 0.010637 -0.00755828
935 4 1 28.6705 9.09165 47.1494 -0.00138594 0.00470315 0.00156432
341 2 3 27.0293 2.58165 47.3223 -0.0033061 0.00439489 0.00123417
2702 10 1 30.3041 3.76807 49.2675 0.00301495 7.32091e-05 -0.00367487
2587 10 1 33.1653 3.94879 51.8396 0.0029247 -0.000946161 0.00312541
2634 10 4 31.1176 1.64431 45.1981 0.00050021 -0.00173303 -0.00439091
101 1 1 34.8145 4.50078 49.9419 -0.000773395 0.00507064 -0.000256418
1833 7 1 41.5635 2.79552 48.1242 0.002971 -0.00282753 0.00105776
1014 4 1 36.9108 3.49707 49.5326 -0.00452066 0.00274356 0.00123789
465 2 1 39.6337 59.7685 44.8124 0.000606097 -0.0029078 -0.00620647
900 4 1 41.1839 2.50932 42.9744 -0.00613665 -0.00119734 -0.00602727
1768 7 1 40.9279 4.4761 51.0556 -0.00440654 -0.00497829 0.00078444
1620 6 1 48.0083 2.23773 51.49 0.00749044 0.0031533 0.00484
1943 7 2 41.4256 8.3441 45.5723 -0.00284027 0.00898121 -0.00215879
1657 6 2 31.3927 9.41183 53.2062 -0.0255399 0.0115427 0.00534358
222 1 2 48.8812 9.82862 48.7146 0.00994553 0.0120893 -0.00482622
910 4 1 46.4929 7.96348 48.1093 0.00253079 0.00351473 0.00183404
1610 6 3 48.3296 59.8043 52.5613 -0.000126726 -0.00469649 0.00480963
1271 5 1 48.506 6.24572 50.4486 0.00153733 0.00276596 0.00201795
127 1 4 50.5323 1.53141 49.5746 -0.00759418 -0.00243302 -0.00126109
386 2 4 44.0303 6.11292 47.9252 -0.00339744 0.000196998 -0.00279279
567 3 1 46.9502 3.46008 43.2818 -0.0023359 -0.00110497 -0.00763233
64 1 1 50.3748 6.14668 48.4896 0.000782109 -0.00138191 0.00178434
516 2 2 39.6128 4.95109 52.8599 -0.0163803 0.00941226 0.00594586
598 3 1 51.0123 3.48327 47.1575 0.00629582 -0.00108539 -0.00734159
2072 8 1 51.0036 3.47566 49.4668 0.00328381 -0.00199979 -0.00316337
1352 5 2 52.535 3.45625 51.054 -0.00695262 -0.0121412 0.00300247
1076 4 2 47.2546 58.041 47.4213 -0.0266375 -0.00961243 -0.00815792
2625 10 1 54.3857 6.26002 46.4424 -0.00095119 0.00275501 -0.00283183
2240 8 2 57.0385 6.22163 48.9251 0 0 0
1877 7 1 57.8266 2.7139 49.6769 0 0 0
1414 6 1 59.0028 3.97085 48.5319 0 0 0
323 2 1 55.2379 5.2152 50.0332 0.00151151 -0.0048591 -0.00125197
2795 10 2 5.209 12.7634 55.8119 0.0013714 -0.0141605 -0.0282694
592 3 4 1.25794 12.1091 48.9928 0 0 0
768 3 4 0.598186 14.8812 48.8194 0 0 0
2595 10 1 3.83305 8.77721 48.7606 -0.00306997 0.00734006 -0.0119744
188 1 1 10.0496 8.64602 51.8396 -0.00217753 -0.0010076 0.00152808
1765 7 1 25.8294 9.38348 49.6381 0.010961 -0.00677102 0.00822371
189 1 1 19.3401 13.3267 46.8254 -0.00114705 0.00755689 0.000657125
678 3 1 22.7624 14.8171 46.8796 0.00630164 5.06552e-05 -0.00409008
1261 5 1 26.4764 7.86986 51.6704 -0.00214235 -0.00527495 0.0103331
1948 7 2 19.9543 5.61215 56.7283 -0.0118962 -0.014816 0.0143995
811 3 2 38.3012 17.8674 45.685 0.0250878 0.00636336 -0.006719
13 1 1 28.1249 14.9854 51.9462 -0.00106121 0.00104405 0.000384565
580 3 4 26.8623 11.9905 52.3095 -0.00574713 0.000415911 0.000322059
242 1 2 23.3193 13.8118 42.9722 -0.0122329 0.00441533 -0.00910101
1398 5 2 18.1187 10.0694 41.5923 -0.0135404 0.0036766 -0.0143342
478 2 1 31.9865 11.9761 49.042 -9.96637e-05 -0.00102612 0.0015276
2579 10 1 35.9725 13.1742 46.0858 0.00389153 -0.000167847 -0.00536309
1524 6 1 48.4102 10.175 46.6661 0.00786323 -0.00422426 0.00274255
667 3 3 37.9831 11.6271 52.3341 -0.00254826 0.00540842 0.000213213
259 1 2 51.807 7.45177 46.733 0.0190607 -0.00621334 0.000879452
119 1 1 43.8766 10.7318 52.3701 0.00922831 -0.00323613 0.000148461
2303 9 1 44.8415 9.43546 54.5778 0.0016498 -0.00371941 0.00461117
1973 7 2 45.6969 3.73759 44.5854 0.00240385 -0.0104955 -0.00496315
1630 6 1 38.4511 5.20035 48.2151 -0.00149825 -0.00549609 -0.00394893
2312 9 1 43.7256 8.85324 46.463 0.00189688 -0.0034229 -0.00445933
1156 5 4 42.7891 11.8594 49.3498 -0.0025147 -0.00287808 0.000790043
1969 7 2 52.6614 13.1275 45.7669 -0.0155424 0.00611319 -0.00090389
2614 10 1 47.7224 12.1118 46.3071 0.00347726 0.000584371 -0.00467038
1761 7 1 49.0401 15.2806 52.5429 0.00337188 0.00719154 0.00069945
409 2 4 47.0425 12.2039 47.5391 -0.00347568 0.00270642 0.00164529
2726 10 1 51.3375 14.7556 50.6561 -0.000650648 -0.000148895 -0.000538351
2281 9 1 50.7592 4.01161 39.5569 0.0102121 -0.0115968 -0.012523
288 2 4 46.537 13.6789 50.4402 -0.00238736 -0.00195235 0.00101416
2383 9 4 46.7706 12.5894 46.5484 -0.00194057 -0.00394238 -0.00479242
2401 9 1 51.0972 9.27168 49.0874 0.00591411 -0.00150656 -0.00569811
30 1 4 56.4441 16.0638 51.614 -0.000942235 0.000314048 -0.00522577
602 3 4 59.0541 9.62367 50.518 0.00351156 -0.000324699 0.0037177
315 2 1 57.8307 12.0494 50.6332 0 0 0
97 1 1 54.0179 8.8341 51.9734 0.00226515 -0.000635155 0.00249834
2522 9 2 53.809 10.698 49.6483 0.000482845 -0.012885 -0.0123992
2780 10 2 51.7191 14.3425 52.0981 0.000870201 0.0134023 -0.00844259
268 1 2 0.0594996 21.2112 53.0017 -0.00767551 -0.00272285 0.0188443
1341 5 4 1.66693 17.0094 45.209 0 0 0
66 1 1 2.48048 20.9683 45.7988 0 0 0
2729 10 3 0.537515 21.377 48.8774 0 0 0
2757 10 1 2.40871 22.2559 49.8326 0 0 0
596 3 1 56.2516 20.3172 45.4611 0.000798655 0.000956243 0.000114388
2472 9 2 54.8104 22.7803 37.5158 -0.0101954 -0.00319665 0.00735262
2489 9 2 11.1622 19.0713 4.50668 0.00204359 -0.00291006 0.025194
582 3 1 5.37946 15.4338 50.7204 -0.00330751 0.0052655 0.000786135
1562 6 1 13.9448 18.1347 45.0485 0.00987713 -0.0016431 -0.00305469
2447 9 3 10.7229 17.0146 45.9259 -0.00050721 -0.00352432 -0.00602415
1780 7 1 16.5364 15.699 51.7177 -0.000893677 0.000311871 0.00125516
397 2 1 15.5824 20.7283 45.3414 -0.00228048 -0.000423428 -0.00026288
1295 5 1 22.4292 23.0568 42.7425 0.00742706 0.00263327 -0.00965868
1508 6 1 20.1809 18.3673 47.5343 -0.00332214 0.00464017 -0.00601969
2161 8 1 27.7475 22.2508 49.3694 0.00244781 0.00102584 0.00521899
414 2 1 21.0053 19.4749 48.4398 -0.00718396 -0.00440501 0.00438661
751 3 1 31.4905 16.2286 52.523 0.00567976 -0.000419216 0.00195632
1766 7 4 29.3012 22.0719 51.2643 0.00686847 0.000947941 -0.000924305
2322 9 1 27.5773 14.2084 47.4057 0.000434179 -0.00269128 -0.00404724
2112 8 4 29.623 20.7355 50.7814 0.0016428 0.000487269 -0.00340862
2215 8 2 25.5324 18.8403 41.5984 -0.00905508 0.00291052 -0.0162324
2332 9 1 31.0763 24.7256 45.5536 0.00154777 0.00662941 -0.00396498
110 1 1 29.0241 17.4236 49.3449 -0.00834773 -0.00348459 0.0034209
123 1 1 35.5665 20.3794 46.861 0.000267529 8.99219e-05 -0.000191334
2636 10 1 33.4249 18.4844 43.2768 0.000666381 0.000367926 -0.00430217
941 4 1 27.8995 15.3331 43.9064 -0.00644782 -0.00504113 -0.00227634
2624 10 1 38.9168 23.9753 46.4904 0.00794553 0.00310922 -0.00443765
894 4 1 35.8882 11.9756 46.4214 0.0106575 -0.0109951 -0.00245896
2758 10 1 31.737 14.232 50.2846 0.00179413 -0.00158253 -0.00253378
2450 9 1 36.5766 16.2706 49.0893 0.00298022 -0.00380499 -0.00555422
131 1 1 40.0378 16.1435 50.2579 -0.00600841 -0.00249751 0.00567587
1082 4 2 33.5311 21.3399 56.3047 -0.00962964 -0.000601841 0.0094321
2297 9 1 42.8689 15.7339 47.6765 -0.00195539 -0.0040026 -0.00222815
1772 7 1 42.043 21.7728 47.2317 -0.00454689 0.00200907 -0.00126348
933 4 1 41.853 20.3737 46.9151 0.00043253 0.00609769 -0.00632892
1588 6 3 49.4291 20.5617 54.3811 -0.00142344 0.00721576 0.00869248
764 3 3 50.3158 20.0349 45.2331 -0.000525208 0.00846966 -0.000598192
2358 9 1 52.0631 20.9467 46.554 0.00224391 0.000528473 -0.00676715
2138 8 1 47.0383 16.2813 53.2775 -0.00590036 -0.00380995 0.00217038
2259 9 1 49.8125 16.225 49.8197 -0.0034408 -0.00119357 -0.00186344
695 3 1 49.5937 19.0911 44.9527 -0.00251627 -0.00503545 -0.000299037
416 2 3 43.9314 18.5177 49.0359 -0.00412646 0.00147691 -0.00561595
1685 6 2 50.3958 14.4553 46.2561 -0.00251993 -0.0037047 -0.0062084
479 2 1 53.075 21.9742 49.2759 0.0017617 0.00272176 0.0022595
1363 5 2 3.37705 20.3877 48.573 0.00271876 0.00115394 -0.0119505
618 3 1 53.4908 19.0063 47.2609 0.00434207 0.000858217 0.00126791
777 3 4 53.0605 21.934 45.2667 -0.00136187 0.00252026 -0.00262121
2177 8 1 2.79841 22.2598 48.4006 0.0068463 0.00358199 -0.00099005
1767 7 1 55.7476 20.6688 53.6184 0.00251087 -0.00121063 0.00148799
1613 6 1 2.24153 24.3723 47.6531 0 0 0
1791 7 1 59.0007 28.9215 52.072 -0.00443484 0.0038034 0.00418517
646 3 4 1.04342 26.9623 47.5199 0 0 0
312 2 4 0.729703 24.2545 47.2596 0 0 0
714 3 1 0.900365 27.4001 50.727 0 0 0
697 3 1 0.808402 27.243 47.8342 0 0 0
2781 10 2 58.7396 34.6336 50.901 -0.0116357 0.0164982 0.00446351
81 1 3 0.244424 24.3745 47.5739 -0.00302101 -0.00438461 -0.0055902
2224 8 2 13.8954 23.2609 47.2322 0.00271535 -0.0113546 0.002271
711 3 3 11.9834 26.8034 50.5302 0.00219864 0.00215781 0.000347173
1797 7 4 9.75355 23.1148 48.5455 -0.00202766 -0.00657309 0.00197021
2037 8 1 12.3166 25.394 44.2677 0.000857671 -0.00607892 -0.00645295
1580 6 4 9.12753 29.3746 49.5859 0.00237567 0.00694443 -0.00933825
828 3 2 21.1056 12.8107 43.8112 0.0239947 -0.0351025 -0.0039953
554 2 2 15.7034 36.1793 57.9127 -0.00242075 0.0181866 0.0115726
144 1 1 17.0836 30.8115 46.739 -0.00273339 0.00179674 0.00115134
419 2 1 20.2066 22.4024 49.6607 0.0052518 -0.00679322 -0.00197781
1714 7 1 20.6423 23.9818 44.7907 0.00438817 -0.00838827 -0.000911924
2064 8 3 19.0547 23.4475 49.8384 -0.00104005 -0.00760046 -0.00377835
547 2 2 17.7278 20.6069 53.6877 -0.0188448 -0.0137167 0.0124808
2509 9 2 27.8834 25.0255 50.3948 0.00235525 0.00514286 0.00388078
1207 5 1 27.8042 26.4104 45.2656 -0.00168104 -0.00166514 -0.00753499
1173 5 1 36.9608 20.5326 52.2315 0.000739439 -0.00432993 0.00896474
1088 4 2 30.74 23.8168 56.2699 -0.00710498 -0.0108471 0.0124899
1690 6 2 42.9339 26.317 1.02916 -0.000615884 0.00535413 0.0217403
1155 5 1 49.7434 26.9916 49.5589 0.0120472 0.00604616 0.00554139
2347 9 1 36.7747 28.1232 47.9348 -0.0038763 -0.00169175 0.00413108
196 1 1 42.5227 29.6756 45.0419 0.00842648 0.00247448 -0.00585782
1332 5 4 42.56 28.1931 47.7008 -0.000631462 -0.00330013 0.00231878
427 2 1 41.655 24.6492 51.9399 -0.000160132 -0.00857944 0.00199399
1018 4 1 42.3892 28.7221 42.9918 0.00182203 -0.00216893 -0.00477896
1411 6 3 37.838 27.9963 45.9274 -0.00123641 -0.0021985 -0.00399981
1616 6 1 45.8598 26.1185 47.6599 -0.000637756 0.00660687 0.00427812
1333 5 4 49.7578 24.3935 47.5937 0.000281046 0.00377314 0.00274063
1795 7 3 47.2518 24.8679 47.0979 -0.00443147 0.00316986 0.001992
46 1 3 48.4011 29.2154 46.8433 0.000458544 0.00278618 0.00165297
38 1 4 48.0065 23.9075 50.7821 -0.00099739 -0.000435737 0.00222732
530 2 2 54.4436 29.0647 45.0983 0.00739804 -0.00137977 0.00181899
72 1 4 53.4732 27.0627 49.0341 -0.00137101 0.0101501 -0.00482518
2481 9 2 58.0349 28.732 52.4725 0 0 0
731 3 1 55.6383 23.3348 50.3297 -0.00320145 -0.00457243 0.00420054
402 2 1 55.6652 27.0397 49.4578 9.01167e-05 -0.00131263 0.00145166
309 2 1 58.585 34.6746 53.2062 -0.00329741 0.00697852 0.00774304
352 2 1 4.1443 32.5847 45.5241 0.00175278 0.00156128 -0.00258265
973 4 4 1.74702 35.674 49.0562 0 0 0
1728 7 1 5.32786 37.6543 51.2908 -0.0107142 0.00641315 0.0105492
2464 9 1 6.52218 36.4369 48.0455 -0.00668532 0.00174089 0.000471893
2434 9 3 14.728 34.5447 51.3957 0.00140084 0.00539815 0.010931
2027 8 1 10.0772 30.1432 47.0762 0.00052591 -0.00580593 0.0022913
2191 8 1 9.24563 39.3608 48.0698 -0.000537249 0.00921077 -0.0025275
1464 6 1 10.6118 31.9999 52.5629 0.00848492 0.00299936 0.000208765
1382 5 2 9.42921 37.0429 42.5145 0.000385528 0.00638378 -0.0140712
1724 7 1 16.0994 36.2656 46.3638 -0.00168088 0.00829102 0.00110477
2381 9 3 19.9359 30.3109 50.6469 0.000761848 -0.00203721 0.00383759
1145 5 4 17.3361 35.3696 52.2623 -0.00360545 0.00511514 0.00207444
2620 10 4 21.6938 38.4217 45.2537 0.00387158 0.00260483 -0.00662871
966 4 1 27.9194 33.198 53.084 -0.00233661 -0.00118574 0.00307294
507 2 2 42.3488 43.7289 51.141 0.0143571 0.0242933 0.00693314
801 3 2 29.1972 35.9703 50.104 -0.004927 0.00716655 0.00308757
2004 8 4 34.8589 37.761 50.7093 0.00389439 0.00177266 0.00423164
904 4 1 31.9023 35.7715 47.4769 0.000861642 -0.00106887 0.00170025
2500 9 2 29.3404 37.1824 48.2365 -0.00688526 0.00606961 -0.000603739
441 2 1 31.9435 36.2588 50.9996 -0.00152167 0.00102158 0.00297449
211 1 1 36.9623 30.4901 49.7158 0.00105497 -0.00579865 -0.000534156
549 2 2 28.3736 26.1133 42.9274 -0.00465408 -0.00878857 -0.00574228
1154 5 1 39.4303 37.4455 51.1539 0.000160309 0.0052714 0.00143998
1008 4 4 42.7913 29.2731 54.2503 0.00221205 -0.00208239 0.00381338
1012 4 1 42.5354 32.209 49.0063 -0.00250609 -0.0027938 -0.00204915
239 1 2 54.52 24.9497 49.276 0.0169558 -0.00911408 -0.00705239
763 3 1 49.8417 33.1433 49.5389 -0.00228941 0.000763336 0.0065835
68 1 3 46.6285 34.1532 45.6173 0.000138338 -0.00606517 0.00116925
1467 6 1 52.0256 29.8827 47.6223 0.00201154 -0.00678146 0.000455142
2734 10 1 49.2128 36.9394 46.8557 -0.00366243 0.0026518 0.00127622
1236 5 1 49.1291 30.865 52.3857 -0.000354516 -0.00139346 0.0023137
1218 5 3 52.2523 36.8511 49.2142 -0.000509195 0.00414458 -0.000549827
2035 8 4 49.2169 31.2913 49.3209 -0.00533449 -0.00458332 -0.000627937
1875 7 1 55.9214 35.5859 46.2676 -0.00243448 0.00267306 -0.000818148
513 2 2 53.941 31.5443 50.9209 -0.0182804 -0.0124638 0.002727
1225 5 1 54.287 32.0242 45.0257 -0.00418156 -0.00199563 0.00139823
2019 8 1 51.9049 33.0305 49.2058 0.00426722 -0.00211151 0.0039113
690 3 4 54.5206 36.0048 46.4296 0.00161782 0.00136504 -0.00303155
1133 5 1 59.5023 33.0454 51.4855 0 0 0
1551 6 1 54.4538 31.4319 48.8645 0.00246926 0.0026373 0.000660214
2244 8 2 51.6266 37.6515 48.4177 0.00570804 0.00192753 -0.0225204
1087 4 2 0.741058 38.4752 46.2555 0 0 0
662 3 1 0.767883 40.7174 46.9794 0 0 0
1361 5 2 0.585442 44.7153 47.7789 0 0 0
854 4 4 14.0265 42.7259 46.6203 0.00297786 0.00870746 -0.000143619
18 1 1 12.4265 44.8734 48.1454 0.00643799 0.00345298 -0.00200283
146 1 1 14.3686 42.5297 48.7883 0.00236777 0.000699324 0.00120938
2543 10 1 8.50016 42.9915 46.5085 -0.00500227 0.00108781 -0.0143559
2628 10 3 19.2132 43.3496 51.3061 -0.00120318 0.00409488 0.0125227
1544 6 3 24.7527 46.5611 46.1653 0.00798277 0.00360619 0.00125369
1107 4 2 6.7871 45.4363 45.5223 0.00935571 -0.00318967 0.0146803
126 1 4 14.7235 40.7737 52.8392 -0.0023954 0.00272382 0.000692959
401 2 1 16.5965 41.9775 46.7538 -0.00213967 0.0024242 0.000112509
1742 7 4 16.8032 41.0732 46.781 -0.00178438 0.00134042 -6.75953e-05
2338 9 4 18.3168 41.2805 49.006 -0.000137364 0.000518464 -0.0029612
1038 4 4 20.7244 43.6265 53.1424 -0.00238555 -0.000256736 0.00415979
672 3 1 20.2302 45.9417 51.8605 -0.00461065 0.00208409 8.29967e-05
1369 5 2 23.6304 27.6179 53.5633 -0.00196102 -0.0256171 0.00933044
2746 10 1 29.0039 39.6138 53.389 0.00214839 -0.00539842 0.0066304
1276 5 4 24.5156 41.0343 49.2448 -0.00147686 -0.000343293 0.00187557
2287 9 1 25.7044 37.559 48.6887 -0.000737811 -0.001126 -0.00471551
1552 6 1 27.3348 42.2365 49.116 -0.0014179 0.00112166 -0.0045688
1376 5 2 23.6553 24.9064 43.011 -0.00347343 -0.0260899 -0.0156801
2214 8 2 30.1814 39.8322 48.7259 0.00611358 -0.00590248 -0.00492105
1327 5 1 33.7162 39.6049 50.2427 -0.00161451 -0.00192041 0.00296542
1713 7 1 36.2821 41.3842 51.0673 0.00104161 0.00140669 0.0023127
2682 10 1 35.6615 38.5919 48.6807 0.00280794 -0.00404068 -0.00382391
285 2 1 34.9416 46.438 47.4931 -0.0044583 0.00660568 -0.00177272
622 3 1 29.1812 42.0717 47.7504 -0.00357491 -0.00508191 0.00226899
348 2 1 35.6462 40.2202 51.1937 -0.00170958 -0.00674411 0.00159782
230 1 2 19.2326 38.2171 43.8422 -0.026786 -0.000992956 -0.0103153
2307 9 1 39.9093 40.5509 50.1719 -0.00501061 0.00364991 -0.00200378
925 4 1 40.9595 43.8 48.3302 -0.00316441 0.000465604 -0.00224778
1144 5 4 44.0286 42.7724 52.7868 -0.00175931 0.00429655 0.00097254
1344 5 2 41.0425 49.3861 41.1854 -0.00173154 0.0150632 -0.0146715
1337 5 1 49.7944 41.7261 53.8869 -0.00017288 -0.00178718 0.00310011
1046 4 3 46.0437 47.8898 47.9515 0.000236366 0.00793864 -0.00459793
2510 9 2 42.321 42.3127 33.4183 -0.0192508 0.0075857 -0.025822
2069 8 1 51.3746 43.2436 50.586 0.00205112 0.00424919 0.00109832
2245 8 2 0.842028 39.8116 49.4374 0.0311341 0.00322739 0.016431
2044 8 1 56.0996 43.4747 46.8163 -0.00105897 -0.000508921 0.00147054
1304 5 1 52.2541 37.9635 46.3415 0.00711647 0.00162537 0.00183853
1848 7 3 58.9224 40.9575 48.9681 0 0 0
1351 5 2 59.9632 37.9589 47.3869 0 0 0
14 1 1 7.79181 51.4485 45.9893 0.000525294 -0.010408 -0.000574404
1321 5 4 0.591645 50.2542 53.8656 -0.000745153 -0.00291413 0.00543799
1005 4 1 11.6973 55.7677 48.2343 0.000723242 0.00738914 0.00554931
1703 7 1 11.1487 51.4577 44.2185 -0.00246978 0.0111702 -0.00595207
228 1 2 17.0958 45.4035 55.0213 0.0395607 -0.0110263 0.0164447
1476 6 1 11.0227 51.8711 47.8944 0.000482243 0.00197209 0.00157783
867 4 1 12.5211 48.2928 43.0287 0.00499116 -0.000126915 -0.00942057
548 2 2 5.57295 57.7206 52.773 -0.0480088 0.0165272 -0.0011373
952 4 1 15.6454 48.7802 53.5028 -0.00419474 0.00173056 0.0108234
413 2 1 20.2032 49.7283 49.4501 -0.00246371 -0.00451569 0.00902201
2144 8 4 23.3272 44.0456 46.213 0.00202896 -0.00299472 -0.00417174
2110 8 1 21.437 45.3883 45.4837 0.000980135 -0.00436516 -0.00413698
2211 8 2 16.6898 47.1617 46.3745 8.29096e-05 -0.00397791 -0.00583006
2467 9 1 22.5728 46.6647 51.2827 0.0081807 -0.00972042 0.00519276
1963 7 2 13.4146 0.188437 50.7524 -0.0128226 0.0211045 -0.00267126
10 1 1 16.0413 51.1852 47.9864 -0.00236729 0.00552857 -0.00826835
803 3 2 31.8709 53.2636 47.3876 0.010328 0.0128722 0.0038023
1454 6 1 27.79 50.3689 53.9589 1.84054e-05 0.00142065 0.00462958
1852 7 4 29.9162 50.174 48.9944 0.00218083 0.0027112 0.000502447
656 3 1 28.8861 50.44 46.1887 0.00395001 0.00258987 0.00011569
836 3 2 15.1686 53.5439 44.5068 -0.0212289 0.00833091 -0.0118095
1001 4 1 33.8111 50.1204 42.4507 0.000955741 0.00106992 -0.00583631
1165 5 3 28.4263 48.1024 46.5694 -0.00657931 -0.00232604 8.0526e-05
1812 7 1 36.3349 47.0228 47.4833 0.00662883 0.0013204 -0.00621742
2258 9 1 42.8105 45.5156 44.038 0.0033862 -0.00131499 -0.005164
564 2 2 49.8077 41.59 38.3363 0.0207827 -0.0112029 -0.0138058
1074 4 2 43.6637 50.1869 46.5752 0.000807158 -0.000784548 -0.00625024
1339 5 1 47.9778 44.6271 46.2816 -0.000571765 -0.00940839 0.00198914
1201 5 1 46.7294 52.6248 47.4642 -0.00423635 0.00664974 0.00247363
2547 10 1 52.4511 51.6733 51.3911 -0.00295839 0.00159884 0.00206239
2775 10 2 53.4478 45.3795 48.3977 0.00636476 0.00318552 -0.00177431
1373 5 2 53.2947 46.5763 49.3312 0.00576301 -0.00404331 -0.00303854
2744 10 1 53.9758 46.9022 48.2854 -0.000448246 -0.00218629 0.00167096
2439 9 1 56.3488 46.9488 47.0477 -0.0057684 0.00299648 -0.00150084
1220 5 1 57.0462 45.2165 45.8085 0 0 0
1270 5 1 59.3971 52.1385 45.3932 0 0 0
1234 5 1 59.05 49.7792 51.2411 0 0 0
1135 5 1 1.90092 54.8569 45.5984 0 0 0
2494 9 2 11.9555 60.0156 41.088 0.00208619 0.00457028 -0.0196182
1186 5 1 11.0054 53.0445 49.4528 -0.00262981 0.000887671 0.000932512
648 3 1 7.95438 58.1796 44.7685 0.00913383 0.000745938 0.00883176
2324 9 3 9.99915 55.6691 49.8562 0.00418461 0.00181418 0.00503476
1529 6 1 12.605 54.2437 46.5542 0.00810599 0.00298507 -0.00611231
1141 5 1 18.858 54.9408 41.924 0.0104178 0.00249042 -0.0109762
2686 10 4 12.305 57.0833 48.7485 0.00122168 0.0010485 -0.00433556
1863 7 4 18.9295 55.5545 45.4205 0.00231424 0.00425207 -0.00136431
453 2 4 19.2205 54.6252 52.5697 -0.002983 0.00408043 0.0032805
878 4 1 19.0438 50.1918 50.1688 -0.00171815 -0.0085047 0.00230077
536 2 2 13.4887 54.4947 51.1126 -0.0136008 -0.00385289 -0.000190643
1860 7 1 18.9253 55.1061 47.8279 0.000756709 -0.00517358 -0.00703815
502 2 1 32.3377 51.4717 50.5109 0.00558179 -0.00645219 0.00929713
1139 5 1 32.5747 0.347776 45.4958 0.00661189 0.00260683 0.000551914
1649 6 2 16.7291 49.7508 38.8687 -0.0253951 -0.0150627 -0.0131214
1891 7 1 32.5487 54.0157 46.9857 0.00610475 0.00174383 -0.0023991
82 1 4 26.7178 56.2184 51.8413 -0.00273336 0.00447592 0.00124484
1247 5 1 26.9665 58.4835 57.3491 -0.003051 0.00157901 0.011342
1901 7 1 24.519 54.6057 44.0265 0.000277728 -0.00395391 -0.00527127
1727 7 1 24.3832 54.721 52.1676 -0.0106732 -0.00293691 0.00153894
245 1 2 31.0689 51.4829 56.4783 -0.00152308 -0.00439228 0.0174118
2172 8 1 37.2942 57.1362 47.9473 0.00345269 -0.00288957 0.00546111
162 1 4 35.1188 55.213 46.5975 -0.0033012 -0.00196379 0.00295271
1876 7 4 33.4596 50.2767 49.632 0.00287488 -0.00568231 0.0021656
217 1 1 34.3312 55.3317 48.8647 0.000239754 -0.00211577 -0.000861642
2321 9 1 30.8713 56.4625 47.65 0.000744974 0.0030898 -0.0037576
1307 5 1 33.7044 55.7064 53.4579 -0.00426921 -0.000359588 0.00567906
2527 9 2 44.3228 55.7658 56.3299 0.00381957 -0.00587602 0.0195899
2203 8 2 30.7603 52.4844 48.0587 -0.0194247 -0.00887793 0.00569546
595 3 1 41.1971 56.78 46.7516 -0.00551048 -0.005081 0.000167536
396 2 1 40.7683 56.4524 55.2516 0.000944307 0.00431205 0.00879634
730 3 1 44.4261 57.5248 47.0613 0.000212947 0.00509797 0.00185484
1548 6 4 44.5026 56.689 49.7916 0.0110762 -0.00292437 0.0022794
940 4 4 43.8429 53.1788 53.1512 0.000412259 -0.00516643 0.00255496
671 3 1 35.9205 56.5509 48.4952 -0.00342506 0.00292749 -0.00186223
599 3 1 44.515 52.042 47.3833 0.00621 -0.00246506 0.00143763
744 3 1 39.2538 50.684 48.9566 -0.000134565 -0.00373813 0.00104409
1205 5 1 38.6342 54.5014 53.7844 -0.00488615 0.000339362 0.0033415
1693 7 3 40.791 57.4651 49.6137 0.0016076 -0.00358599 -0.00483537
494 2 1 43.5395 0.721343 45.4963 -0.0067618 0.00591746 0.000945092
719 3 1 47.4701 56.8533 48.8689 -3.02534e-05 0.00462818 0.00215292
586 3 1 49.7581 59.0639 51.7103 0.00721868 0.00651692 0.000977777
1267 5 1 47.0326 58.3356 53.4428 0.00107155 0.00146395 0.00245277
988 4 1 45.7119 0.58996 46.6134 -0.00598358 0.00212822 -0.00203349
1879 7 1 48.5106 56.242 45.8551 -0.00283567 -0.00363356 -0.00274882
1566 6 3 50.5223 56.1905 47.7111 -0.00165792 -0.00297512 -0.00328632
2732 10 1 52.0481 53.7301 53.2267 -0.00262174 0.000899653 -0.0040349
1916 7 2 52.8232 53.7632 49.2715 0.000435079 -0.00173928 -0.0120168
1974 7 2 4.66138 49.8797 57.9696 0.0172841 0.0147937 -0.0125157
212 1 1 53.4327 53.971 49.9002 -0.00264505 0.00147118 -0.00236119
2704 10 1 58.3831 54.9879 42.347 -0.00241699 0.00138219 -0.00884482
587 3 1 57.2417 57.313 45.8964 0 0 0
248 1 2 52.3465 54.0127 49.8431 -0.0196626 0.00255379 -0.00968009
180 1 1 6.21444 2.9462 54.523 0.00610354 -0.000466208 -0.00906272
1200 5 4 9.27638 4.09642 0.288256 0.00431585 0.00573875 -0.00161432
2213 8 2 0.70854 4.84377 53.4327 -0.0197102 -0.00901493 0.0185492
2127 8 1 15.0851 7.02959 51.1518 0.0105754 0.0021511 -0.0109077
2477 9 1 13.3735 3.0841 52.8429 -0.000253398 0.000820547 -0.00386388
173 1 1 10.3251 4.04515 50.2786 -0.00248185 -0.00189331 -0.00567352
364 2 4 20.8742 4.22485 53.9182 -0.0032265 0.00406598 0.000959223
699 3 1 25.3248 2.54308 56.3371 0.0111801 -0.00629548 0.00249349
198 1 1 23.3907 0.869888 55.7779 -0.000548303 -0.00207681 0.00126985
1061 4 4 23.417 0.802038 1.1048 -0.00357787 0.00129667 0.00501797
1269 5 1 26.2262 1.81988 56.9508 -0.00768112 0.00282613 0.00110457
677 3 1 33.8183 6.21044 4.05944 -0.00248929 0.00524686 0.00953566
2642 10 4 38.0248 1.62201 56.2584 0.00110651 -0.00168947 -0.00199928
2640 10 1 37.0624 3.44058 56.3565 0.00115085 -0.00176926 -0.00225034
1047 4 1 31.0293 2.97819 51.8437 -0.00182449 0.00201042 -0.00423911
340 2 1 29.0679 5.95496 59.72 -0.00302201 0.00495293 0.00303161
1539 6 1 30.7547 2.54049 1.35375 -0.0076166 9.12845e-05 0.00282037
1910 7 1 30.7979 6.34319 58.1232 0.000214653 -0.00208704 0.00436936
1034 4 1 33.6867 1.53293 53.9286 -0.000476972 -0.00604881 -0.00335325
732 3 1 40.6503 3.08499 56.7448 -0.00291655 0.0033721 -0.00468212
2808 10 2 44.689 1.0633 14.4272 0.0133467 -0.00157029 0.0398087
2096 8 1 39.0178 0.028835 56.7194 0.00275011 -0.00301056 -0.00182782
2676 10 4 41.1747 59.2764 56.4267 -0.00247103 -0.00297262 -0.00339968
2380 9 1 44.4884 0.387577 54.958 0.00398965 -0.00615392 -0.00346707
886 4 1 39.3999 1.47733 52.3909 0.00147213 0.00117484 -0.00581562
1242 5 1 47.2654 3.67395 57.7719 0.00739298 0.00237599 0.00302038
772 3 1 36.971 6.13619 57.6505 -0.00129466 -0.00138091 0.000416594
722 3 1 47.6325 3.782 55.5152 -0.00444352 -0.000529776 -0.0043932
2109 8 1 51.4757 3.23454 59.9188 -0.00272428 0.00240716 -0.00155433
1972 7 2 57.6872 4.04835 9.64546 -0.00295438 -0.00042573 0.0259803
2099 8 3 56.9489 6.68569 53.7296 -0.00240263 -0.00128642 -0.00305397
1794 7 1 53.5728 4.80692 53.4029 0.00316047 -0.00624873 -0.000940983
879 4 1 52.668 4.33447 56.3311 0.00079935 0.00375151 0.00107747
761 3 1 58.0647 6.26764 55.6754 0 0 0
5 1 1 54.073 5.92587 57.8856 0.00212889 0.00077353 6.09175e-05
272 1 2 58.2518 16.4947 9.80954 -0.0179696 0.016716 0.0258861
2801 10 2 55.1261 29.3821 47.4964 -0.0155531 0.00616183 -0.0013072
576 3 1 2.25714 14.5281 59.1961 0 0 0
2231 8 2 56.6729 16.3001 54.1849 -0.00164419 0.0241355 -0.0227872
1208 5 1 16.64 7.6339 54.7898 0.00925397 -0.00490173 0.00293871
1661 6 2 8.67746 13.3159 56.8518 0.0108041 0.0231925 0.0236508
2618 10 1 9.48799 11.3342 51.4054 0.00140423 -0.000744216 -0.00508988
1245 5 1 18.3913 9.05106 1.28183 0.00717705 -9.15706e-05 0.00493208
1217 5 1 15.4127 15.9808 56.2955 0.0133952 0.00453705 0.000338248
2436 9 1 21.4664 6.36582 56.4562 0.000719521 -0.00424402 -0.00493411
932 4 1 23.5172 10.3218 56.8898 0.00344875 -0.0020192 0.00563971
1884 7 4 19.1763 10.3414 56.6575 0.000356312 0.00572579 0.00334567
1238 5 1 16.5581 12.7719 1.33091 -0.00470665 0.00403772 0.00360559
442 2 4 13.7685 6.06547 58.5368 -0.00393833 -0.00328087 0.00383624
406 2 1 14.585 8.95665 56.4046 -0.00285494 -0.00186245 0.00149849
2285 9 1 23.1389 13.183 58.7229 -0.000846282 0.0036784 0.0124015
2429 9 1 27.6124 11.7556 50.8395 0.00136805 0.00507435 -0.00547993
927 4 3 25.2241 10.8947 49.7863 -0.00130038 0.00478596 -0.00606077
2280 9 3 28.1646 13.1245 53.8828 -1.16532e-05 0.0034222 -0.00421656
474 2 4 25.3416 6.62469 53.2502 -0.00126686 -0.00197337 -0.00575437
366 2 1 27.6225 7.70505 0.372311 -0.00193713 -0.00346266 0.00185884
436 2 1 27.2548 11.8365 58.7798 -0.00214963 -0.00238873 0.00348651
2359 9 3 26.5069 12.2294 59.7199 0.00457691 -0.00403842 0.00490912
795 3 2 31.1214 17.1937 46.021 -0.00332221 0.0168593 -0.0142791
727 3 1 30.6839 11.6906 55.8652 -0.00429535 -0.00236283 -0.00742035
1535 6 3 28.9633 12.8179 1.92215 -0.00230463 0.00466585 0.0131234
1428 6 1 36.3778 13.1622 56.3038 0.00849184 0.00943684 -0.00107691
54 1 1 30.4043 13.4976 52.328 -0.00185503 0.000251551 -0.00543533
749 3 1 30.0949 17.8628 56.1339 -0.00173094 0.00772504 0.00175839
57 1 1 34.7632 8.32093 59.8244 -0.00159971 -0.000743076 0.00340512
781 3 1 40.6003 8.46678 54.6962 0.00618084 -0.000960429 -0.00812358
2739 10 1 42.4922 10.5961 59.4142 0.00383509 -0.000922649 -0.000872641
2764 10 2 44.3136 15.3991 46.5527 0.00473342 0.00694548 -0.0199826
2621 10 4 41.5084 14.7784 57.5594 0.00239178 0.000866859 0.00513232
597 3 1 41.4519 16.69 50.6759 0.00589985 0.00884866 -0.00627681
683 3 1 46.1228 11.3303 49.7084 0.00733731 -0.00185263 -0.00820181
2405 9 4 39.928 16.287 0.394616 0.00237786 0.0052844 0.00479675
685 3 1 37.1352 11.7032 57.1536 -0.0054473 0.000144529 0.000192075
537 2 2 40.2099 13.2686 55.25 0.000305319 -0.00117725 0.0016172
2049 8 1 42.1941 8.67993 2.34851 -0.00292978 -0.00334686 0.00604369
993 4 3 46.3812 6.48025 57.8102 0.00215243 -0.0047165 -0.0040793
2251 8 2 42.0887 16.7507 1.9197 -0.0101445 0.00430998 0.0131934
632 3 3 50.6437 8.97169 48.8557 0.0102643 -0.00511456 -0.0104166
664 3 1 47.3819 7.04785 51.7549 -0.0023059 -0.00139952 -0.00332583
388 2 1 47.914 10.0624 58.1795 -0.00560909 0.00438593 0.000168793
760 3 1 47.1741 8.96112 55.7886 0.000375611 -0.00940878 0.000997152
827 3 2 54.0295 11.783 56.472 -0.0167301 0.00575502 0.0138612
2473 9 1 57.6483 8.78434 56.5268 0.00511934 0.000423737 -0.0029662
693 3 1 59.7174 13.1441 54.5312 0 0 0
770 3 1 59.6399 13.8623 55.0008 0 0 0
181 1 1 1.46043 11.2101 55.0201 0.00737857 -0.00082511 -0.00260997
2505 9 2 54.7705 7.24187 51.7483 0.0117932 0.00366748 0.0262972
298 2 4 0.115801 21.3195 56.5293 0 0 0
355 2 1 0.874153 15.114 0.599725 -0.00840508 -0.00926825 0.0080366
1664 6 2 56.8139 6.24614 2.81879 0.0047734 -0.0195142 -0.00660058
231 1 2 58.2211 8.96637 58.6571 0.014965 0.00216603 0.00608884
2818 10 2 4.31213 27.5094 3.29255 0.013142 -0.00496705 0.0384134
1919 7 2 18.4202 2.11248 32.0929 0.0104935 -0.0268676 -0.0427485
460 2 3 10.6378 15.4483 54.7321 -0.00341829 -0.00101863 0.00327321
1293 5 1 11.4428 19.4107 55.4995 -0.00238016 0.00418343 -0.00443007
676 3 3 8.10947 22.4404 57.4673 -0.00013212 -0.0029622 0.00325839
1318 5 1 14.0441 12.3203 58.3672 0.00920154 -0.0113297 0.00824239
497 2 4 8.08588 16.1941 55.8739 -0.00493995 -0.000752225 -0.00131628
2425 9 3 15.5055 14.6316 58.2909 0.00183906 -0.00303451 0.00173491
2061 8 1 12.9355 20.3704 51.2641 -0.00158967 0.000157919 -0.00367092
2414 9 1 12.3241 17.5974 59.8363 -0.00140025 -0.00993074 0.00428538
1850 7 1 19.7237 12.5855 58.4094 0.00363415 -0.00661327 0.00544274
2455 9 1 18.8217 14.7339 1.48862 0.000663299 -0.00436268 0.00421982
224 1 2 11.3495 17.9425 50.8444 -0.0150259 -0.00607274 -0.00647464
450 2 1 25.2654 19.6127 54.7555 -0.00215274 -0.000747911 -0.00438153
220 1 1 22.9462 19.5661 57.1634 -0.0015589 0.000938951 7.24544e-05
943 4 1 27.9385 19.2654 0.955035 -0.00209126 -0.00180821 0.00359814
2053 8 1 33.9946 15.7435 52.2656 0.00535495 -0.00129808 -0.00602974
891 4 1 32.5059 15.5451 55.3781 0.000797726 -0.00467239 0.00251095
485 2 1 27.4388 18.2987 55.3338 -0.00812967 0.00169978 0.000832034
1346 5 1 44.1949 13.1402 55.758 -0.00116868 -0.00558318 -0.00559707
233 1 2 41.2471 9.59546 11.4129 -0.00280288 -0.0250485 0.0289387
2323 9 1 41.17 18.6339 2.35728 0.00657332 -0.00278624 0.00951079
86 1 1 41.2251 21.327 0.765841 -0.000630123 -0.000463068 0.00221371
1738 7 3 38.7561 21.6097 49.0638 0.00135748 -0.00144537 -0.00764843
1541 6 1 44.8251 16.5315 58.0993 -0.00143819 -0.00331968 -0.0032832
286 2 1 45.8747 18.7397 54.7795 0.00112543 -0.00743804 -0.0069038
2283 9 1 51.9777 16.7664 56.0594 0.000141672 -0.00306458 -0.00137126
1861 7 3 49.121 19.0259 57.2167 0.00494453 -0.00192122 0.00226596
949 4 3 45.3087 14.5426 0.386461 -0.000149771 -0.00272952 0.00360686
1162 5 1 53.3706 16.6023 54.1038 -0.00221169 0.00271037 0.00194094
575 3 1 54.1196 19.4149 54.8099 0.00856369 -0.00220755 0.00226827
2548 10 1 57.0448 15.0229 57.8774 0 0 0
2550 10 1 59.5183 16.4081 53.4371 0 0 0
2661 10 1 58.5426 15.186 56.3584 0 0 0
1603 6 4 57.3843 18.7272 54.1225 0 0 0
324 2 1 57.3942 19.7178 56.0894 0 0 0
771 3 1 58.3496 20.5525 59.8015 0 0 0
1808 7 4 2.30091 25.8136 56.2189 -0.00102292 0.000202573 0.000905586
572 3 4 0.717497 23.1296 52.7629 0 0 0
2183 8 1 0.394576 27.806 59.5268 -0.0025855 -0.000760117 0.00387219
1078 4 2 11.7049 22.0604 53.043 0.0093276 -0.00765844 -0.0171025
2566 10 4 13.7039 24.3041 51.9894 0.000683181 0.000379612 -0.00385128
635 3 1 15.1947 27.5055 56.7787 -0.00567884 2.20711e-05 -0.00515111
1456 6 3 16.7683 26.6187 57.0762 -0.00130142 0.00649623 0.00488096
955 4 1 14.4645 31.1721 55.4553 -0.00452127 0.00711348 0.00315124
1977 8 1 23.2103 26.3902 58.8251 0.0014631 -0.000580112 0.00645641
1739 7 1 16.5886 28.5133 52.3595 0.00226569 0.00233086 -0.00179212
311 2 1 14.7519 29.5194 59.3171 -0.00454295 0.00178539 0.00268001
2209 8 2 17.2878 24.7908 59.0176 0.000673579 -0.00748189 0.00377915
2518 9 2 14.3431 30.9694 39.3271 -0.0237581 0.0096288 -0.027134
2679 10 1 24.1721 25.6652 55.0127 0.000968812 0.0022515 0.00512703
2148 8 1 31.4455 22.6236 55.316 0.00342433 -0.00621819 0.00534947
1471 6 4 26.3139 25.6677 53.0859 -0.000318552 -0.00111711 -0.00429267
2268 9 1 26.8313 22.5755 59.4825 0.000686701 -0.00389247 0.00460794
6 1 4 35.4744 23.5898 58.41 -2.50104e-05 0.00194824 0.000549463
1992 8 1 38.2621 29.8051 52.1817 0.00738849 0.00468203 -0.00731711
199 1 1 36.5477 24.716 55.8804 0.00126022 0.00127 0.00122005
663 3 1 28.8513 24.9389 58.9894 -0.00383182 -0.000969616 0.00135232
28 1 4 41.8657 22.3174 55.474 0.000281821 -0.00561541 0.0015248
440 2 1 43.1037 20.6155 1.92196 -0.000212038 -0.008933 0.00423506
2653 10 1 38.621 26.5834 57.3597 -0.0065681 -0.00155615 0.00435438
1641 6 2 41.5568 19.8099 53.1961 -0.00389752 -0.00838501 0.000211894
981 4 1 47.0473 19.7328 55.3248 -0.002349 -0.00680924 -0.00781255
1903 7 1 52.7019 21.2823 53.9156 0.000439922 -0.000959255 0.00449233
1419 6 1 46.6018 23.9984 59.579 0.000388369 -0.00275915 0.00597546
1584 6 1 42.8473 27.5357 0.565542 -0.00442902 0.00300737 0.00209854
994 4 4 48.8774 23.3727 0.391979 -0.00302294 -0.00171635 0.00283032
665 3 1 47.9879 27.5273 58.5765 -0.00574107 0.00303832 -0.000516985
1786 7 4 47.1489 24.7593 59.1175 -0.00398745 -0.00314172 0.000674346
523 2 2 43.2261 29.5108 1.3102 -0.0143793 0.00109831 0.0130506
2756 10 1 53.2208 28.3208 0.0187086 0.00180279 0.000698274 0.00186141
1490 6 1 58.3039 25.3549 58.0666 0 0 0
566 3 1 57.9225 24.6419 55.0545 0 0 0
954 4 1 52.3526 29.8278 54.0362 -0.00064855 -0.00503398 -0.0039794
2355 9 1 1.23253 30.6282 54.7225 0 0 0
633 3 1 5.48912 30.8994 53.2362 -0.00519898 0.000627555 0.00519105
885 4 4 12.5309 30.366 52.0871 -0.00221042 -0.0030176 -0.00548518
94 1 4 9.94526 31.0262 56.1413 -0.00443917 0.000469092 0.00119084
1006 4 4 20.7723 34.5737 56.9289 -0.00061729 -0.000826172 -0.00359442
475 2 4 17.2549 36.3295 52.8298 0.0043898 0.0030233 -0.00531238
1700 7 4 22.6357 36.9346 56.7771 0.0111997 0.00337345 -0.00217737
2294 9 4 16.8276 36.9906 52.5622 -0.00218191 0.00703354 -0.00400078
1274 5 1 20.1568 34.4138 1.22016 -0.00202243 -0.00167457 0.00343949
1867 7 1 18.5 28.5064 1.34534 0.000926804 -0.00836542 0.00321325
1040 4 1 27.8041 34.1118 56.158 -0.00169892 -0.00175989 0.00473467
1348 5 1 23.0753 33.6923 55.7336 -0.00416182 -0.00279569 0.00243434
102 1 1 31.9852 37.5324 52.5157 -0.00125024 0.00173699 -0.0079811
985 4 1 39.9249 29.8067 56.5712 0.00687876 -0.00416877 0.00782247
2228 8 2 34.0866 23.6343 1.67722 -0.00683557 -0.0155763 0.0135318
194 1 1 36.0256 37.6038 0.336384 0.00964583 0.00612118 0.00444898
2273 9 4 31.0712 29.8673 51.6742 0.0012007 -0.00265623 -0.0045933
1989 8 3 38.0796 33.7015 56.0734 0.00391702 0.000742071 -0.00244288
591 3 1 33.0001 32.6211 53.8246 -0.00492113 -0.00077964 0.00033471
261 1 2 40.7628 26.4598 3.06646 -0.00296217 -0.0163549 0.01942
921 4 1 36.7007 33.2227 57.9358 -0.00499275 0.00176493 0.00221656
2217 8 2 44.6645 28.4827 47.6494 0.010447 -0.0169962 -0.0110637
1996 8 1 44.2607 33.143 59.9144 -0.0033391 0.00444353 -0.000128231
644 3 1 48.9585 34.3112 54.573 0.00699687 0.000636563 -0.005872
1099 4 2 54.0885 34.9279 55.4375 0.00890438 -0.00749432 0.0062729
432 2 1 51.2573 35.6447 58.3017 0.00179445 0.00154009 0.00112945
210 1 1 51.6151 31.9977 0.0344725 0.00398507 -0.00255983 -0.000948583
2056 8 4 56.4791 32.162 59.1602 0.00379426 -0.00128041 0.000932267
658 3 4 58.8648 30.4105 54.2891 0 0 0
673 3 1 58.0161 34.4014 59.2004 0 0 0
2534 9 2 1.77524 45.6118 53.5605 -0.00374274 -0.00107532 -0.0128526
382 2 1 1.85925 41.4141 55.5583 -0.00352871 0.00574704 -0.000927241
275 1 2 20.8183 36.0563 51.226 0.0274556 -0.00596212 -0.00895955
2398 9 1 12.3127 38.6708 1.12207 -0.00105898 -2.0696e-05 0.00502708
1783 7 1 14.3922 38.6392 49.3117 -0.00103611 -0.00442945 -0.00666844
1399 5 2 18.465 39.0586 5.04887 -0.00274441 -0.00946592 0.0129258
473 2 3 18.901 39.7511 59.4974 -0.00197107 0.00266788 0.00322446
2438 9 4 20.0876 44.0926 53.4517 0.000471951 0.000915281 -0.00490617
2301 9 1 22.6856 45.5425 55.7407 0.00673898 0.00277724 -0.00223468
914 4 3 15.6291 41.0022 54.1096 -0.00181893 -0.0076513 -0.00546658
1167 5 4 18.4936 43.3569 49.1976 -0.00196912 -0.00169374 -0.00700192
2773 10 2 18.771 49.9725 47.2311 -0.0114153 0.014267 -0.0153639
808 3 2 35.1167 46.365 1.44426 0.0135157 0.00373856 0.0169836
2378 9 1 31.8801 35.3143 56.9848 0.00505073 -0.0048085 0.00546098
2711 10 1 27.8936 41.1697 57.6978 0.00253261 -0.00289697 -0.00183443
2644 10 1 26.4053 45.5588 51.9766 -0.000211157 0.00385571 -0.00251112
1619 6 1 24.0995 42.9229 52.4037 -0.0036126 0.000500248 -0.00318364
726 3 4 22.7078 39.9458 57.4424 -0.00324695 -0.00525096 0.00330725
766 3 1 23.0653 40.9845 0.109914 -0.00300157 -0.00480954 0.00103959
810 3 2 24.0829 42.89 53.4539 -0.0104367 -0.00290017 -0.00164118
1844 7 1 35.5061 40.5319 57.7593 0.00250881 0.00175865 0.00190258
1148 5 1 29.1938 38.9873 59.0128 -0.00183323 -0.00268129 0.0025257
957 4 1 34.2422 36.9346 0.224782 -0.00378485 -0.00119613 0.00379169
1792 7 1 44.999 40.5822 3.18594 0.00282387 0.00387136 0.0116763
71 1 1 42.6922 37.2746 54.4413 -0.00259027 -0.00373587 0.00196287
1366 5 2 40.9258 56.3502 2.18057 -0.0021769 0.0256077 0.00518844
2778 10 2 33.6033 42.2797 5.54252 -0.0224754 0.00418019 0.0145973
2570 10 1 44.1063 43.0156 55.7032 0.0049735 0.00345301 -0.00342544
1050 4 4 42.6087 37.4495 2.2775 -0.000194835 -0.0012882 0.00505247
380 2 1 38.164 44.1185 56.5998 4.33347e-05 0.001801 0.000660376
1442 6 1 36.8906 37.0848 53.6576 -0.00476784 -0.00214506 -0.000578961
571 3 1 43.7217 35.7571 51.4454 -0.00141364 -0.00516492 -0.00798715
192 1 4 43.0121 43.0906 55.5292 -0.00368046 -0.000492094 -0.00123273
872 4 1 40.2485 42.1124 58.3588 -0.00402678 -0.0031671 0.000585962
551 2 2 42.5261 35.8792 3.16607 -0.00379319 -0.0135632 0.00722359
1676 6 2 44.5248 41.6234 48.4919 -0.00531849 0.00717112 -0.0156342
509 2 2 49.0594 42.8616 55.3722 -0.0100251 0.0120748 -0.00346548
841 3 2 50.7182 42.1616 38.1372 -0.00871536 -0.00662634 0.00621521
2745 10 1 43.8368 45.1165 54.2279 -0.00273934 0.00143895 0.00310361
717 3 1 49.4078 40.3019 54.5729 -0.0047576 -0.00362176 -3.53127e-05
1412 6 1 48.5918 38.8809 54.7643 2.73085e-05 -0.000814284 -0.00287983
1117 4 2 50.266 43.4721 2.66976 0.0019144 -0.000169986 0.0055057
1288 5 4 46.3081 40.639 53.9553 -0.00297564 -0.000590899 -0.00121389
1734 7 1 51.9769 40.7339 54.4042 -0.00264413 0.00215549 -0.00305042
489 2 1 48.8849 39.7818 54.7202 0.00218318 -0.00487217 0.00147763
1595 6 1 49.7094 41.4409 2.68796 0.000814589 -0.00630134 0.00576199
191 1 3 49.4726 42.7355 58.7044 -0.00151817 -0.00279637 -0.000481145
1094 4 2 51.685 37.1369 52.5034 -0.00603799 0.0168407 -0.014818
1607 6 1 52.8048 39.7727 0.062365 0.00208326 -0.00169606 0.00152913
708 3 1 57.908 38.2719 55.8636 0 0 0
1889 7 1 9.87489 49.6506 52.6397 0.0151796 0.00680153 0.00491923
483 2 1 8.42563 51.32 56.1285 0.00938278 -0.00492172 -0.0109903
1577 6 1 17.7252 56.5937 56.6417 0.00617765 0.0117812 -0.00617458
1940 7 2 11.0293 56.3728 13.5983 -0.00192209 0.0218316 0.0289386
1158 5 4 15.8957 52.4847 1.97542 0.00207304 0.0011296 0.00620834
850 4 1 9.3955 48.1045 50.484 -0.0049054 -0.000375395 -0.00531987
848 4 1 9.82872 48.4027 50.8147 -0.00515484 -0.00027697 -0.00539138
1176 5 1 13.6501 45.4304 49.0388 -0.00222359 -0.000761675 -0.00729762
1605 6 1 27.8786 54.669 50.834 0.0110533 0.0124357 -0.00865502
2417 9 1 32.0866 53.8379 55.6122 0.00506566 0.00707051 -0.00629777
1368 5 2 16.9735 56.985 2.03954 -0.011567 0.0152139 0.0156952
1017 4 4 29.7632 51.309 59.5424 0.000285231 0.000604535 0.00516272
87 1 1 26.1132 53.3935 58.0111 -0.0055086 0.0059422 0.000145832
2521 9 2 37.6023 46.0922 56.6258 0.00240244 -0.00581943 -0.0043671
241 1 2 36.8238 42.4672 56.0782 0.0118675 -0.0164863 -0.0070941
1043 4 1 32.02 54.9169 53.6102 -0.0060139 0.00660334 0.00129754
1869 7 1 38.7441 47.9645 0.157756 0.00355508 0.00212101 0.00318997
2392 9 1 33.5752 48.1856 1.22399 -0.00640044 0.00312537 0.00612402
2181 8 1 27.513 49.2606 53.4529 -0.00599411 -0.00526482 0.000347974
2218 8 2 44.351 40.0307 52.7256 0.00243693 -0.0131915 -0.0119666
792 3 2 44.9082 49.0054 9.97474 0.0117275 0.00709592 0.0317736
1790 7 1 39.2594 47.3428 54.3151 0.00196365 -0.00329763 0.00234868
1423 6 1 41.91 45.888 56.4663 5.48039e-05 0.000316536 -0.0023769
716 3 1 43.8678 46.6244 52.6863 -0.0006095 -0.00491848 -0.00558782
1480 6 1 42.0662 47.2502 59.5081 0.00114963 0.00153616 0.00385228
492 2 1 41.1418 49.9431 1.01839 0.00132624 0.00475748 0.00232139
2718 10 1 45.9697 46.7051 55.2813 0.0050333 -0.00265146 -0.00173302
1486 6 1 43.8451 51.8512 54.8302 -0.0024076 0.000500071 -0.00720574
138 1 4 50.7986 45.438 56.055 0.00181341 -0.004648 -0.0061504
2652 10 1 49.5268 53.0462 59.2783 -0.00209246 0.00426611 -0.00111199
1229 5 1 47.6622 45.9919 0.379744 -0.000507571 0.000929716 0.00312543
2406 9 1 51.3163 48.1137 54.098 -0.00116147 -0.0012524 0.00543072
484 2 1 47.9852 48.6891 56.8189 0.00217509 -0.00360559 0.00221278
919 4 1 52.0395 46.3756 55.5897 0.00108294 0.00166476 0.00115174
2204 8 2 0.807378 46.2378 58.294 0.0228527 -0.0185045 0.0137259
2052 8 1 55.624 48.8793 54.3394 0.00161329 0.00130163 -0.00360358
2197 8 2 59.5921 48.3227 59.9145 0 0 0
1147 5 1 7.12434 55.53 52.2886 0.00640027 -0.00801186 -0.00666855
584 3 1 0.706391 56.9583 55.4153 -0.000824319 -0.00406883 0.001437
244 1 2 1.57366 53.7658 57.1702 0 0 0
2041 8 1 15.7251 54.7121 58.2599 0.00498945 -0.00724378 -0.000557706
1633 6 2 22.7468 0.466083 6.51155 0.024094 0.00496154 0.0166172
1655 6 2 13.2452 59.0639 57.3674 0.0132414 0.00252769 -0.00907965
267 1 2 23.6377 0.644201 51.9498 0.00766509 0.00667744 -0.00881871
2786 10 2 20.9164 47.9017 38.5064 -0.000926875 -0.0118156 -0.0290017
1417 6 1 15.0653 4.58085 55.6814 -0.00404609 0.0108652 0.00536446
2492 9 2 12.8531 57.3509 46.7203 -0.0121843 -0.00309735 -0.0131114
2416 9 4 18.7036 55.8701 57.5844 -0.000247648 0.00348081 0.00411512
2114 8 4 16.1607 1.97835 54.2852 0.000413831 0.00576685 -0.00290784
303 2 1 31.1427 0.0696332 55.4805 0.009161 0.0102011 0.00166474
858 4 1 29.0016 59.4894 51.8872 -0.00184206 0.00894752 -0.00521438
2407 9 1 35.1547 58.0746 58.9527 0.0154938 0.000751081 0.00566229
105 1 4 27.622 1.934 59.4437 -0.00183801 0.00514867 0.000885022
859 4 1 22.3305 58.8141 53.6106 -0.0061924 0.000691376 0.000555106
1364 5 2 30.3577 52.2891 50.5255 -0.00924272 -0.00756157 -0.00433711
2276 9 1 42.3177 55.7136 56.3952 0.00677144 0.000731381 -0.00722033
797 3 2 46.757 6.90077 6.6204 0.00671934 0.015274 0.0287129
1126 4 2 39.4906 4.16523 56.4254 -0.00259682 0.00959998 0.0075088
2776 10 2 34.8699 55.4379 54.447 -0.00778706 -0.00707692 0.000420118
1880 7 1 43.5934 58.5112 52.7179 0.00389232 0.00379136 -0.00511254
2097 8 1 48.661 52.3061 55.2544 0.00863917 -0.00582574 -0.00146654
404 2 1 41.5888 52.2741 56.6767 -0.00338568 -0.00305345 0.00238008
1157 5 1 42.1979 52.8903 56.2335 -0.0026926 -0.00448009 -0.00140685
2593 10 1 46.3351 57.8599 50.9313 -0.00100726 -0.00220328 -0.00442351
2814 10 2 52.2299 58.513 0.768501 0.0214017 0.00747045 -0.00825289
823 3 2 50.3887 50.3918 48.5702 -0.00563534 -0.00763825 -0.0127552
42 1 1 49.0369 58.2024 58.5452 -0.00663012 -0.00273538 0.00453649
1911 7 1 45.015 56.1596 56.1836 -0.00447472 0.00258968 -0.000822518
757 3 4 46.3169 51.6175 57.6561 0.000682521 -0.00344314 0.00148761
1821 7 1 56.5774 57.7635 53.2035 0.000341161 -0.000551218 -0.001489
305 2 1 58.5878 56.0935 53.8533 0 0 0
ITEM: TIMESTEP
20000
ITEM: NUMBER OF ATOMS
2820
ITEM: BOX BOUNDS pp pp pp
0.0000000000000000e+00 6.0000000000000000e+01
0.0000000000000000e+00 6.0000000000000000e+01
0.0000000000000000e+00 6.0000000000000000e+01
ITEM: ATOMS id mol type x y z vx vy vz
442 2 4 7.80267 2.2501 1.06737 -0.00249102 -0.0060096 -0.000240777
871 4 1 7.14335 7.10416 59.3466 -0.00154394 -0.000428595 0.00466188
3 1 1 7.61864 4.27901 4.34536 0.00773527 0.00698092 0.00281869
1776 7 1 12.4933 8.64004 1.92295 -0.00100267 0.0053029 -0.0040992
2748 10 1 15.3694 2.2307 8.15118 0.00234316 0.00421903 0.00134427
557 2 2 13.2417 9.21076 10.7206 -0.00199863 0.00533808 0.0213001
2440 9 4 16.7838 2.64867 2.6135 0.00157491 -0.00229006 -0.00298771
2152 8 3 19.1609 2.5509 5.71318 0.00114479 -0.00084461 -0.000680682
1291 5 1 15.0784 7.87215 3.33106 -0.00139636 0.00210452 -0.00260639
1539 6 1 11.7132 2.7687 8.40467 -0.0076166 9.12845e-05 0.00282037
2416 9 4 18.0845 4.57207 7.87219 -0.000247648 0.00348081 0.00411512
1105 4 2 26.1484 6.79511 3.42015 0.0188387 0.0104301 0.00345274
1787 7 1 18.3884 3.69719 4.91053 0.00501537 0.00377011 -0.00221298
2469 9 4 19.8451 8.63 57.2534 0.00545889 0.00444827 -0.0117929
2672 10 3 19.9105 11.4052 4.80196 0.0019044 0.0099486 -0.00382379
893 4 1 26.9997 56.4836 3.70934 0.00654459 -0.00958467 -0.00156861
366 2 1 22.7797 59.0484 5.01942 -0.00193713 -0.00346266 0.00185884
1841 7 4 29.5166 4.7639 0.443759 0.00339478 0.00464506 -0.00577194
436 2 1 21.8807 5.86466 7.49606 -0.00214963 -0.00238873 0.00348651
918 4 4 27.8897 7.13446 59.3212 -0.000177134 0.00288515 -0.00980688
1910 7 1 31.3345 1.12558 9.0466 0.000214653 -0.00208704 0.00436936
57 1 1 30.7639 6.46324 8.33724 -0.00159971 -0.000743076 0.00340512
2396 9 4 34.5149 10.754 1.41755 0.00153799 0.0089163 -0.00224964
782 3 1 34.8252 59.8325 0.102377 -0.00213918 -0.00170025 -0.00547076
1015 4 3 34.9207 0.883435 1.23384 -0.00466441 -0.00343722 0.000273613
2637 10 1 34.5082 59.9654 4.54539 -0.00538727 -0.000134987 -0.00313947
2512 9 2 35.7423 2.28497 4.63395 0.00662427 -0.0106105 0.00909114
891 4 1 34.5003 3.86408 1.65547 0.000797726 -0.00467239 0.00251095
2654 10 4 40.4021 55.3909 0.454562 0.00459653 -0.00981985 -0.00106804
2457 9 1 41.0916 3.17046 3.77518 0.00272516 0.00139915 -0.00242538
2607 10 1 45.921 4.10525 4.46885 0.0025469 -0.000434075 -0.00201451
112 1 3 40.3898 3.58951 0.781986 -0.00209357 -0.00511758 -0.001664
1889 7 1 47.8238 6.65441 4.93778 0.0151796 0.00680153 0.00491923
2754 10 2 45.1704 9.60284 2.14389 0.00297394 0.0105668 -0.000171811
2428 9 1 36.6432 2.2868 3.99907 -0.00372787 0.00356246 -0.000715427
1698 7 4 46.3274 3.01993 0.779261 0.00152994 -0.00214731 -0.00253657
2399 9 1 44.4219 0.672751 59.8832 -0.00308319 -0.00230407 -0.00299341
159 1 1 52.3297 59.2159 4.7196 0.00178326 0.00459052 -0.00416454
2303 9 1 48.966 0.136945 6.10573 0.0016498 -0.00371941 0.00461117
2343 9 1 50.3212 1.10691 56.8982 0.00353692 0.00215919 -0.00758378
1134 5 4 51.5154 58.9273 2.96029 0.00579819 0.000919244 0.00102742
2250 8 2 60.0203 6.14207 3.0614 0.00916305 -0.00435678 -0.00550924
2697 10 1 54.0376 3.7986 4.01748 0.000995574 -0.000371366 0.00213888
1121 4 2 58.7517 7.0898 5.41858 0 0 0
536 2 2 53.688 5.06911 1.40083 -0.00485099 0.0234992 -0.00314642
4 1 1 53.3556 0.350193 3.22815 -0.00428342 -0.00284379 -0.00396141
2227 8 2 1.43629 1.95465 57.4603 0.0049137 0.00360611 -0.0116271
1359 5 2 0.329627 14.6053 5.26558 0 0 0
1986 8 1 3.0543 9.39342 3.39737 0.00312967 0.00619748 -0.00566721
355 2 1 3.09996 9.81633 3.20744 -0.00311134 -0.00482098 0.00758499
1447 6 3 9.90001 12.2166 2.4154 -0.0019491 0.00326346 -0.00135326
979 4 1 13.7749 9.81709 3.60807 -0.00244981 -0.00328059 -0.00245359
822 3 2 9.78298 9.19163 3.66693 -0.0040086 -0.00154484 -0.00405011
1177 5 1 19.8477 15.2521 7.97913 -0.00108683 0.00857941 0.00228261
2425 9 3 20.1032 7.04535 2.62815 0.00183906 -0.00303451 0.00173491
2209 8 2 18.9718 6.08609 8.46551 0.000673579 -0.00748189 0.00377915
860 4 1 18.7121 8.79557 2.50794 -0.00227569 -0.00438164 -0.00282811
1907 7 4 16.0102 14.3477 1.55866 -0.000650276 -0.00109173 -0.00187113
1826 7 3 22.2103 7.80926 57.6936 0.0035676 -0.00908068 -0.00619639
2494 9 2 17.171 11.4413 52.0427 0.00208619 0.00457028 -0.0196182
45 1 1 18.3516 6.36772 4.65612 -0.00261014 -0.00608423 -0.00305649
2785 10 2 16.7072 8.57775 10.6297 -0.00132078 -0.0124042 0.011704
105 1 4 23.0269 14.8057 1.65622 -0.00183801 0.00514867 0.000885022
150 1 1 28.5806 12.5893 6.21975 0.00402736 0.00326063 0.00116251
429 2 3 24.5552 6.61476 2.71135 -0.00190748 -0.00217592 -0.00333466
1457 6 1 23.8231 6.72947 3.54231 -0.00482055 -0.00210893 -0.00273669
2366 9 1 25.5254 14.9514 4.8543 0.00161884 0.00285004 0.00486993
131 1 1 25.0168 9.89969 4.44756 -0.00600841 -0.00249751 0.00567587
405 2 1 39.4205 13.4896 59.6062 0.0137676 -0.000733598 -0.00666794
373 2 1 34.3859 13.7778 5.04783 -0.000370205 0.00402308 0.00153668
1188 5 4 30.5807 12.347 2.86417 -0.0034031 -0.000983652 -0.000701071
2043 8 1 30.0122 13.3813 5.18008 -0.00617427 0.0012675 0.000310994
52 1 4 35.5026 9.85498 0.782599 -0.00369642 0.0010162 -0.00394514
1939 7 2 29.0649 3.26196 0.629619 -0.0128873 -0.0118973 -0.00533841
2148 8 1 40.0063 7.07807 8.68973 0.00342433 -0.00621819 0.00534947
2733 10 1 42.7166 14.1715 7.57157 0.00322896 0.00601855 0.000157957
2435 9 1 42.0894 12.7125 6.53716 -0.00459348 -0.00253616 -0.000217489
1919 7 2 44.654 54.9434 45.2217 0.0104935 -0.0268676 -0.0427485
779 3 4 46.0107 10.4225 3.29408 -0.000692716 0.00554114 0.000544224
1185 5 1 51.4187 10.0771 1.33485 0.00146409 0.00499002 -0.000945572
2677 10 1 1.10705 11.9349 9.51967 0.00263907 0.00456357 0.00445614
1667 6 2 56.8006 10.0875 6.19914 0.00307208 -0.010271 0.0239875
2740 10 1 52.6261 9.90574 2.97319 -0.00708786 0.0042148 -0.00228362
1336 5 1 53.5311 9.20515 3.24619 -0.00146625 -0.00205511 -0.00500298
2150 8 1 56.7124 13.8202 2.14036 0.0015913 -0.000321328 0.00162387
1108 4 2 1.64755 18.4561 2.13241 0 0 0
2707 10 3 2.91452 21.6147 7.30906 0 0 0
1946 7 2 1.57856 17.2808 0.833009 0 0 0
92 1 1 0.750465 22.1208 0.958992 0 0 0
290 2 4 5.12531 18.4551 7.705 -0.00779493 0.013795 -0.00107256
1926 7 2 0.62072 26.6404 2.197 -0.0076302 0.0250912 -0.00668216
40 1 1 2.10227 21.4788 59.6101 0.0032099 0.00609671 -0.00446048
1389 5 2 5.63012 17.4822 56.7619 0.0121436 0.0192342 -0.0374828
1972 7 2 2.93579 19.6384 20.0187 -0.00560162 0.00734902 0.0310223
1487 6 1 11.3458 21.8339 58.9507 -0.00583533 0.00685493 -0.00284126
2488 9 2 7.56369 16.1917 3.9077 -0.002745 -0.0302524 0.0313205
1681 6 2 8.65705 17.3498 3.84234 0.00130938 0.00791379 -0.00694312
2221 8 2 12.2531 24.1353 59.1234 -0.012941 0.0103939 -0.00557405
1334 5 1 22.5995 25.9788 2.08613 0.00719566 0.00766884 -0.00241917
1083 4 2 14.841 17.9164 58.3287 -0.0010776 -0.00225906 -0.00386333
1884 7 4 20.0671 24.6559 5.02171 0.000356312 0.00572579 0.00334567
1459 6 1 17.9588 24.0149 4.34311 0.0032843 0.0117367 -0.00536526
1191 5 1 21.5313 18.5089 58.5908 0.00333924 0.00557012 -0.00917467
2761 10 2 22.263 12.7243 12.2655 0.00234911 -0.0194755 0.0135136
340 2 1 21.5129 18.3373 7.29906 -0.00302201 0.00495293 0.00303161
462 2 1 28.7373 24.4345 58.4016 0.00776546 0.00452571 -0.0054748
2001 8 1 28.1325 21.6575 2.92134 0.00222275 -0.000508453 -0.00186207
2162 8 1 31.376 10.8531 57.8693 0.00725126 -0.0112038 -0.0089608
2354 9 1 27.1809 24.19 3.3414 0.00141309 0.009997 -0.00677806
2108 8 3 24.9502 22.1614 2.8705 0.000966422 0.000403038 -0.00730045
1751 7 3 30.7137 15.9374 58.7459 0.000592474 -0.00116206 -0.00498381
1437 6 1 34.3703 20.1861 57.6618 0.000102031 0.00391121 -0.00765912
1923 7 2 33.5059 27.1214 9.00386 0.000446688 0.0111397 0.00857809
1179 5 1 34.6852 18.9426 2.4326 -0.00359357 0.00113138 -0.00485376
543 2 2 33.3256 24.7793 58.9479 -0.00351131 0.0198531 -0.015167
825 3 2 29.1876 19.7594 5.10103 -0.00215744 -0.000138957 0.0091273
86 1 1 39.6498 20.1693 6.30012 -0.000630123 -0.000463068 0.00221371
2635 10 1 37.8431 20.5468 5.74414 -0.00595163 -0.000620372 -0.000277033
994 4 4 41.32 19.0818 7.46778 -0.00302294 -0.00171635 0.00283032
1786 7 4 37.1802 16.905 0.803324 -0.00398745 -0.00314172 0.000674346
1861 7 3 37.0206 14.3777 2.1445 -0.00746075 -0.00198305 0.00213752
2026 8 4 42.2779 16.7908 6.08598 0.00347539 -0.000264218 -0.0022
2284 9 4 43.949 22.4458 5.97484 0.0014386 0.00339178 -0.00179502
815 3 2 50.853 16.4699 59.7306 -0.00814636 0.00154728 -0.00831655
1458 6 1 51.9379 16.4028 5.04931 -0.000774869 -0.00466374 -0.00590519
1849 7 1 47.578 12.6649 59.6448 0.0033311 -0.00780911 -0.00450772
837 3 2 49.659 15.9066 7.13988 0.000631299 -0.0120426 0.00794609
1947 7 2 52.499 13.5421 55.6995 -0.00519057 -0.00199721 -0.000103872
516 2 2 15.3617 22.3444 8.45901 0.0191685 -0.00797168 0.00866661
2137 8 1 1.22331 28.5158 3.31769 0 0 0
2206 8 2 55.9284 35.4084 8.15007 -0.014753 0.0219434 0.00487692
570 3 4 2.96422 26.9904 59.9209 0.003375 0.00221453 -0.000522605
2490 9 2 7.22388 29.5068 9.20436 0.0286272 -0.0026199 -0.0408544
1417 6 1 12.1834 24.9917 8.10673 0.00478276 0.00455249 0.00611811
1348 5 1 12.6708 26.7031 1.81942 -0.00416182 -0.00279569 0.00243434
529 2 2 10.6271 19.0134 5.63622 -0.00246579 -0.0134288 0.00753682
1033 4 1 15.5452 30.0318 0.751769 -0.00216148 0.00439618 -0.00194372
784 3 1 14.9708 28.2662 57.3462 -0.00413762 0.00107922 -0.00587028
663 3 1 19.2718 22.5148 2.37024 -0.00383182 -0.000969616 0.00135232
726 3 4 14.5905 26.8184 5.71055 -0.00324695 -0.00525096 0.00330725
517 2 2 11.8292 25.029 0.0358837 -0.0098836 -0.00669592 -0.0013554
2631 10 1 19.3349 27.1837 56.2776 0.00774334 -0.0056127 -0.0125912
977 4 1 20.4469 26.3034 8.14258 -0.00185421 -0.00174206 0.00994996
997 4 1 23.8037 24.5322 0.418342 -0.00409721 0.00181881 -0.00362808
2653 10 1 22.2007 22.693 8.24566 -0.0065681 -0.00155615 0.00435438
518 2 2 25.3871 23.0685 56.731 -0.00496919 -0.0110769 -0.00838806
869 4 1 22.5371 24.0928 4.75359 -0.00143249 -0.00301082 -0.00279334
819 3 2 28.5835 14.7987 53.0759 0.0044744 -0.0259562 -0.0152898
2208 8 2 25.4163 26.313 8.61762 -0.00749842 -0.00234655 0.0122643
2746 10 1 34.3749 26.1178 9.96501 0.00214839 -0.00539842 0.0066304
1948 7 2 48.4514 12.2486 24.0679 0.0255247 -0.0254523 0.0471365
2042 8 3 41.7283 25.7168 3.88291 -0.0024779 0.00121276 -0.00337467
1052 4 1 41.7833 24.2702 5.18135 0.00804476 -0.00749825 -0.00150307
1945 7 2 35.1031 8.41306 11.2139 -0.00498452 -0.0299373 0.00919875
2571 10 1 41.6279 30.6762 2.4733 -0.00404751 0.00178227 -0.00690377
2467 9 1 43.0246 22.3637 4.26464 0.0081807 -0.00972042 0.00519276
882 4 1 44.8819 24.0123 6.18403 -0.00453722 0.00224749 0.00239201
1367 5 2 51.3551 26.0714 0.81988 -0.00559946 -0.00218693 -0.0130179
163 1 1 51.3121 26.4834 4.99589 -0.00121394 -0.000138963 -0.00304424
2551 10 1 52.4066 23.1082 0.270035 -0.000775846 -0.00079066 -0.00529857
2130 8 3 51.5746 24.9296 3.3376 0.00354842 -0.00219603 0.00362569
1578 6 1 44.6146 28.3305 2.28627 -0.00367682 -0.000295135 -0.000715031
720 3 3 47.6082 23.1968 1.12377 -0.000590156 -0.00438359 -0.00076032
1380 5 2 52.6537 28.8145 7.89103 0.00382992 0.0069545 -0.00767163
1008 4 4 48.3215 24.0671 3.78375 0.00221205 -0.00208239 0.00381338
849 4 1 45.4696 28.718 -0.00688743 -0.000782781 -0.00199078 -0.00406565
1970 7 2 48.2427 23.3917 11.2275 -0.00664722 -0.00959683 0.0184995
2560 10 1 53.2048 28.6887 2.13699 -0.000934557 -0.00685103 -0.00157716
2662 10 1 53.02 25.3284 1.51207 -0.000803722 0.00336804 -0.00237064
2183 8 1 55.6196 27.3857 5.85683 -0.000839356 0.0011842 -0.00138974
670 3 1 54.397 27.1203 6.36929 -0.00197028 0.00288422 -7.34865e-05
2583 10 1 4.92489 30.239 2.35292 -0.000127818 -0.0100264 0.00917392
258 1 2 55.4082 28.8953 3.85805 0.000100988 0.010061 0.00196704
2246 8 2 53.7036 40.7989 7.98673 -0.0160752 0.0227138 -0.0141873
2352 9 4 1.74578 34.3342 2.83433 0 0 0
794 3 2 7.46198 22.5454 3.89682 -0.0172958 0.0142469 0.000648238
845 3 2 1.78736 26.0485 3.20309 -0.00869898 -0.0234689 -0.0231513
240 1 2 55.243 33.5233 3.69667 -0.0259624 -0.00653398 0.00113885
2737 10 1 11.1892 31.8444 2.22557 -0.000106175 -0.00436956 -0.000332943
2657 10 1 10.3019 34.0077 9.4415 0.00439638 -0.0021972 0.00885791
227 1 2 55.291 35.8956 0.622371 0.00520087 0.0049794 0.0155829
2585 10 1 9.5178 39.5408 6.34354 -0.00010252 0.00873218 -0.00222815
2684 10 1 8.69574 34.6554 4.36155 0.00481733 -0.000429945 0.00322233
99 1 1 17.3281 35.6447 2.65766 -0.00244419 0.00693537 -0.00484673
532 2 2 8.70375 33.862 59.4617 -0.0165546 0.00386857 -0.00874135
2083 8 1 19.1438 29.5177 3.85614 0.00449949 -0.00191799 0.00131687
2687 10 4 21.4235 30.3503 2.41574 0.00088945 -0.00378977 -0.00158203
766 3 1 15.5613 28.9606 2.70889 -0.00300157 -0.00480954 0.00103959
1355 5 2 27.1604 41.1575 54.3878 0.0168577 0.012932 -0.0219257
2679 10 1 26.5941 31.294 7.83033 0.000968812 0.0022515 0.00512703
1148 5 1 24.6107 32.2841 5.32703 -0.00183323 -0.00268129 0.0025257
1040 4 1 23.5568 29.7121 7.99466 -0.00169892 -0.00175989 0.00473467
921 4 1 24.2188 37.635 3.47718 -0.00499275 0.00176493 0.00221656
1883 7 3 28.2828 30.3864 4.81791 0.00125168 0.000163144 -0.00250201
2239 8 2 17.0433 31.3789 58.9811 -0.0131035 -0.011275 -0.00612114
987 4 1 28.0547 34.9788 4.13764 -0.00399543 -0.00459424 -0.00144043
2350 9 4 33.0333 34.3798 0.798315 0.00211913 0.00546968 -0.00103827
1010 4 1 36.9108 29.9258 0.490562 0.00109418 -0.00153452 -0.00222504
1584 6 1 31.7747 35.0541 5.81189 -0.00442902 0.00300737 0.00209854
142 1 1 32.8666 31.1763 4.85852 -0.000410542 0.00145083 -0.00343215
912 4 1 45.1104 34.3353 3.64976 0.00167394 -0.000617173 -0.00305812
520 2 2 37.1519 36.554 53.7472 -0.00120201 0.000738799 -0.0224274
1930 7 2 45.1734 29.1878 18.0514 -0.00322014 -0.0103165 0.0358877
763 3 1 44.1182 35.0517 5.99763 -0.00228941 0.000763336 0.0065835
696 3 1 0.185626 37.9571 4.37851 0.00232264 0.00602937 -0.00157992
2397 9 1 55.4939 37.1809 4.442 0.00557458 0.000829843 -0.00166566
387 2 4 54.5725 36.2762 2.26157 -0.000977624 0.000209743 0.000149941
1601 6 3 5.33175 42.5782 2.99255 0.00679344 -0.00092258 -0.00545199
1456 6 3 13.5148 42.8593 9.27861 -0.00130142 0.00649623 0.00488096
2812 10 2 3.68307 42.1767 2.75333 -0.0105096 -0.00238788 -0.0183013
1102 4 2 8.2333 34.232 0.823154 -0.00536908 -0.00608174 -0.0019704
2230 8 2 19.9825 51.6297 3.20954 0.0141524 0.0230195 -0.00383218
955 4 1 12.4428 46.8318 1.6727 0.00275271 0.00550897 0.00199318
94 1 4 20.8879 47.5103 6.7329 0.00598192 0.00811826 0.00496639
2411 9 1 21.6929 43.3299 3.34718 0.00342791 0.0051813 -0.000233922
184 1 4 22.6894 42.1572 2.10739 0.007075 -0.00126366 -0.000474516
2146 8 1 23.9979 46.4922 8.28563 0.00638816 0.00382218 0.00215895
963 4 1 19.1237 40.8359 0.733015 0.00565388 -0.00466305 -0.000929054
328 2 3 13.3188 35.3537 5.69914 -0.00411692 -0.00483103 -0.00317829
358 2 1 21.2411 38.0607 4.79784 -0.00232579 0.00047757 -0.00372582
1038 4 4 14.7605 42.9846 3.54192 -0.00238555 -0.000256736 0.00415979
1395 5 2 17.7963 29.4085 8.64397 -0.00145757 -0.0198351 0.0162129
1320 5 4 25.7906 41.3898 59.6271 -0.00159304 0.00503068 -0.00287889
293 2 1 27.9308 41.6592 57.9119 0.00447457 9.43865e-05 -0.00780274
2546 10 4 25.4198 46.0547 7.35005 0.00108498 0.00233327 -0.000214995
255 1 2 18.0638 48.4767 12.0747 -0.0130243 0.014648 0.0127988
1168 5 1 31.1311 40.4554 3.32731 -0.00290809 0.00120917 0.000771523
1230 5 1 34.3597 39.1174 59.9117 -0.00171893 -0.000145858 -0.00385283
881 4 1 32.762 41.4983 4.16254 -0.00369495 -0.000608851 -0.000912797
1900 7 1 30.9922 42.171 11.1919 0.00100652 -0.0043842 0.0108436
1481 6 1 32.7184 40.629 0.912618 -9.44558e-05 -0.0057035 -0.00307684
176 1 1 34.4307 36.6263 5.85436 0.000692873 -0.00394107 -0.00279016
1844 7 1 41.7781 44.9285 2.51577 0.00250881 0.00175865 0.00190258
1368 5 2 51.6942 47.121 6.39431 -0.00897126 0.00204395 0.0338334
2454 9 1 38.8104 44.5002 5.129 0.00255854 0.0118118 -0.0024056
1814 7 1 43.293 42.3388 54.4388 0.002105 0.00227678 -0.0156168
2403 9 3 48.2837 42.4443 7.79805 0.00273537 0.00071473 0.010485
1337 5 1 49.3622 37.2582 1.63714 -0.00017288 -0.00178718 0.00310011
757 3 4 48.0232 43.0096 1.37507 0.000682521 -0.00344314 0.00148761
1668 6 2 0.866388 36.7205 0.427174 0.0262408 -0.0158813 -0.00862936
2143 8 3 53.2894 41.0891 2.75295 -0.000121141 -0.00133627 0.00150977
2487 9 2 58.384 41.047 0.0127171 0 0 0
2531 9 2 57.9987 42.6625 1.07508 0 0 0
687 3 1 56.2082 41.5166 3.09204 0.00310974 -0.0060318 -0.00149814
1321 5 4 58.7288 42.9688 7.46056 -0.000745153 -0.00291413 0.00543799
2712 10 1 0.851169 45.1983 1.88268 0 0 0
1557 6 3 6.5576 49.8337 2.13637 -0.00120098 -0.00468721 0.00162831
982 4 1 0.720978 46.6247 3.59162 -0.00625472 -0.00079887 -0.00465625
2360 9 4 4.71319 47.5629 7.0187 0.00134347 0.0028165 0.00839297
473 2 3 13.9733 46.4208 7.55856 -0.00197107 0.00266788 0.00322446
1893 7 1 9.01392 48.3815 1.25535 0.00192304 -0.0019457 -0.00268031
538 2 2 8.3863 46.9155 3.84004 -0.00214043 -0.0160641 -0.00783404
2164 8 1 20.5592 46.228 59.7809 0.00122292 -0.0029028 -0.000863109
998 4 1 23.0363 53.5727 59.0514 0.00400592 0.00426995 -0.00390482
2671 10 1 23.4343 48.0211 4.86774 0.0124704 0.00143377 -0.00351324
2491 9 2 23.9086 46.8905 3.59783 -0.0104954 0.000485278 0.0011614
1920 7 2 13.352 47.6127 3.0879 -0.0211592 -0.00140962 -7.00813e-05
1300 5 1 23.0118 53.3393 5.97681 -0.000857219 0.00635503 -0.00205932
512 2 2 14.5613 40.3423 58.3781 -0.0214307 -0.0167803 -0.0127399
1106 4 2 25.5484 52.9274 51.33 -0.000775162 0.00682414 -0.0276968
1262 5 3 34.0828 47.7885 1.26429 -0.000709819 6.57467e-05 -0.00332817
281 1 2 25.5047 59.1007 56.4374 -0.00975228 0.0141409 -0.00845028
585 3 1 35.0423 52.7011 1.64066 0.00422681 0.00106992 -0.00584491
404 2 1 33.1246 44.6405 2.62693 -0.00338568 -0.00305345 0.00238008
9 1 1 33.6238 51.3917 3.56692 -0.007665 0.000371203 -0.000973999
2535 9 2 29.4853 52.6273 54.2271 -0.00608419 0.00575514 -0.0241382
2300 9 1 40.2748 45.2946 59.7466 0.00454369 -0.000126738 -0.0032873
1480 6 1 44.9403 51.0906 9.13879 0.00114963 0.00153616 0.00385228
2367 9 1 37.3983 48.2989 2.89196 -0.00442456 -0.00190848 0.000452278
1618 6 1 37.638 49.7775 5.03239 -0.0013943 -0.00474845 -0.000976361
2745 10 1 36.9885 48.7139 1.98688 -0.00273934 0.00143895 0.00310361
1869 7 1 47.6318 53.2671 8.13268 0.00355508 0.00212101 0.00318997
194 1 1 50.9722 48.7495 8.23768 -0.0022984 -0.000278262 0.000589803
2656 10 4 48.8177 47.9723 0.205727 0.00248547 0.00289343 -0.00103673
1229 5 1 46.3933 48.3162 8.19333 -0.000507571 0.000929716 0.00312543
2479 9 2 43.603 46.9917 7.63591 -0.00447977 0.000913262 0.00442179
972 4 4 50.4033 50.547 5.18956 -0.00148705 -0.00127381 0.00132253
2356 9 1 50.3924 53.1793 1.50545 -0.00355445 0.00445906 -0.00290304
699 3 1 51.4564 47.4323 1.64321 0.00138261 0.00115828 -0.00596303
2818 10 2 51.8226 53.9294 55.7894 -0.00836833 0.00719253 -0.00638054
2518 9 2 43.3195 48.0038 7.70691 -0.0203161 -0.000556933 0.00249734
1610 6 3 48.0127 48.0631 4.58535 -0.000126726 -0.00469649 0.00480963
2541 10 1 55.1253 50.3959 6.04399 0.000502582 0.000153198 0.00038483
350 2 3 59.0934 45.5362 0.357337 0 0 0
525 2 2 59.6775 45.7685 0.295352 0 0 0
2575 10 3 53.6775 47.9653 1.98129 -0.00229004 -0.00439204 -0.00277465
2569 10 1 59.5564 52.2215 2.31971 0.00636176 0.000373616 -0.00559487
272 1 2 57.7069 3.44483 18.0677 0.00362889 0.0229256 0.0207615
552 2 2 5.34585 50.826 7.26616 0.00692456 0.000719027 -0.00296454
1958 7 2 2.00117 58.4317 3.71671 0 0 0
1624 6 3 0.235656 56.1033 7.26488 0 0 0
2742 10 4 5.21899 55.7003 3.59529 0.0029272 -0.00451096 0.00586273
322 2 1 0.909701 59.4931 7.60631 -0.00400926 0.00552173 0.0054988
1094 4 2 57.2832 53.1245 58.2294 -0.0145058 -0.0111669 -0.00328123
2807 10 2 14.5906 59.6443 0.625033 0.000433862 -0.000415973 -0.0129455
1143 5 3 11.8825 53.5586 4.53043 0.00630693 -0.00264092 -0.00423133
434 2 1 16.3456 50.3727 4.73127 0.00241388 -0.00794675 -0.00118334
1441 6 1 20.7774 53.2346 0.838813 0.00438809 -0.00296147 -0.00278684
1039 4 4 20.5881 55.4114 1.58943 -0.00184399 0.000718536 -0.00166836
1998 8 3 20.9982 56.9763 56.7874 0.00147602 0.00302993 -0.00825276
1328 5 3 13.5177 55.0346 1.1832 -0.00335823 6.1861e-05 -0.00873478
2324 9 3 20.4607 0.204512 2.44309 0.00418461 0.00181418 0.00503476
1913 7 1 28.1322 54.8566 59.2115 -4.92784e-05 0.00337686 -0.00239615
1196 5 3 25.8731 54.442 2.6487 0.00399097 0.00173336 -0.000258456
2441 9 1 31.424 56.2038 59.9622 0.00824453 -0.000180407 -0.00217252
29 1 1 22.7577 53.8174 59.0662 -0.00158313 -0.00114186 -0.00418408
1454 6 1 27.8361 53.9205 5.53285 1.84054e-05 0.00142065 0.00462958
1307 5 1 23.0314 54.8075 7.65556 -0.00426921 -0.000359588 0.00567906
947 4 1 21.8526 50.7017 5.08815 -0.00239194 -0.00431383 -0.00280279
1377 5 2 30.7358 0.976262 6.21259 0.00507874 0.00467593 0.00883555
1205 5 1 26.4188 55.3498 2.13809 -0.00488615 0.000339362 0.0033415
385 2 3 29.9872 57.8401 57.7201 -0.00324586 0.00503268 -0.00755861
1735 7 1 32.1651 59.5526 3.94777 -0.00603797 0.000864347 0.00109861
1208 5 1 39.7749 55.3796 2.13659 0.00925397 -0.00490173 0.00293871
826 3 2 30.3319 59.4532 0.826485 -0.0180793 0.0143382 -0.00452833
2008 8 1 35.499 54.7211 7.7946 -0.00566666 0.0017475 0.0017012
492 2 1 44.4574 1.83684 6.82185 0.00132624 0.00475748 0.00232139
11 1 1 45.2076 54.5757 58.0779 0.00097326 -0.00133663 -0.00519381
1275 5 3 41.556 1.28783 10.601 0.000681902 0.00755388 0.0095229
2480 9 2 45.1687 56.8118 51.936 0.00255307 -0.00544972 -0.02736
1765 7 1 51.8411 52.8899 8.32903 0.0010979 -0.0022377 0.00175529
2330 9 4 51.288 58.5519 1.84896 0.00449635 0.00192608 -0.00220592
449 2 1 47.7087 56.5552 6.19016 0.000728267 0.00294792 -0.00209078
2163 8 1 53.0499 58.3794 6.94782 -0.00116394 0.00576838 -0.00114459
2530 9 2 56.2709 54.3161 5.23995 -0.00592348 -0.0126462 -0.0193318
2788 10 2 0.477771 3.98095 13.9264 0 0 0
1322 5 1 5.30068 1.4924 13.4689 -0.00956034 -0.00720923 0.00331574
2596 10 1 5.12408 1.18311 12.6002 0.00158309 -0.00534497 0.00872226
1002 4 3 0.809656 2.61943 10.9793 -0.00472427 0.00249122 -0.00138607
2772 10 2 14.4918 2.41107 11.9202 0.0107817 -0.00268462 -0.00117117
1887 7 1 13.7265 7.26277 9.24449 0.00141529 0.00846442 -0.00364214
2532 9 2 15.8922 50.4792 7.54617 0.0197593 -0.0290315 -0.00990149
1061 4 4 14.4723 4.04372 13.6497 -0.00357787 0.00129667 0.00501797
412 2 1 20.3712 8.76959 12.7268 0.00417904 0.00395839 -0.00131901
1440 6 4 15.5689 3.413 14.5505 -0.00200461 -0.0035072 4.10515e-05
2641 10 3 20.0481 0.235492 6.25934 0.00376115 -0.00192142 -0.00696898
2455 9 1 20.48 3.82719 12.0382 0.000663299 -0.00436268 0.00421982
1080 4 2 26.6807 50.4985 7.76765 0.00441375 -0.0342714 -0.0066958
2402 9 1 26.4332 6.21091 6.83998 0.00245806 0.00190872 -0.00874654
675 3 1 25.7705 59.7888 12.1705 -0.00417533 -0.00560781 -0.00416458
932 4 1 32.1391 5.27378 10.9891 0.00344875 -0.0020192 0.00563971
2359 9 3 37.9491 2.13332 11.9928 0.00457691 -0.00403842 0.00490912
104 1 4 36.5018 3.91487 8.71201 -0.000335817 0.00364369 0.0016929
2502 9 2 31.9844 58.0317 26.9527 0.00166664 -0.00409733 0.0257569
107 1 1 32.4207 6.28914 7.65915 -0.00280897 0.00417824 -0.000901533
2136 8 4 28.4743 5.48931 10.3005 -0.00620604 0.000707015 0.00142734
1019 4 1 40.5866 4.30641 3.89362 0.00757587 -0.00248033 -0.00850888
2049 8 1 34.8697 0.312782 17.4577 -0.00292978 -0.00334686 0.00604369
1090 4 2 39.8121 10.4764 9.36046 0.0115725 0.0158273 -0.0043813
431 2 4 39.1781 2.117 7.99259 0.00556666 0.00375641 -0.00453225
396 2 1 43.1291 7.23253 17.2424 0.000944307 0.00431205 0.00879634
440 2 1 42.5736 58.283 12.5096 -0.000212038 -0.008933 0.00423506
1631 6 1 44.5003 5.3479 8.92718 -0.000635668 0.00192729 -0.000821482
15 1 3 43.9801 6.48256 13.2993 -0.00105376 -0.00110992 0.00125013
1101 4 2 38.953 6.35137 19.484 -0.00241167 0.0117033 0.0118381
1576 6 1 46.9024 2.66641 9.9412 -0.000875628 -0.00313471 0.00264497
2407 9 1 49.5199 2.87774 8.98497 -0.00123909 0.00350182 0.00303255
1909 7 1 52.3447 6.40525 9.65434 -0.00139352 0.000379068 0.000756818
2296 9 1 51.7515 5.72285 10.3429 -2.13247e-05 0.000412759 -0.001521
1722 7 4 51.7348 5.85363 12.3154 -0.0031914 -0.00536935 0.000758721
2311 9 1 51.9154 59.5866 14.1896 -0.00858903 -0.00284835 0.000398525
547 2 2 54.8796 4.34807 12.0288 0.00823812 0.0220599 -0.0178256
34 1 1 55.4999 3.82311 16.0646 -8.71844e-05 -0.00127609 0.000150628
2565 10 1 53.6065 0.270039 13.9805 -0.00149877 -0.000355087 -0.000467525
1098 4 2 58.4798 2.72832 7.99122 0 0 0
2195 8 1 53.0339 7.27028 11.5674 -0.00625136 -0.00144562 -0.000569398
1688 6 2 54.4552 3.96952 15.2402 0.00743541 -0.0196024 -0.0246531
2617 10 1 52.9638 7.26331 11.3892 -0.000896766 0.00494335 -0.000387442
2710 10 1 6.87535 12.2959 8.97949 -0.0057917 -0.00703886 -0.00288183
812 3 2 9.68928 15.5769 15.1658 -0.00595991 0.0026371 0.0114601
2039 8 1 9.47063 10.4411 15.8403 -0.000779737 0.00537611 0.00474943
1164 5 1 9.20148 9.99825 9.30911 -0.00248235 -0.00465138 -0.00332989
2226 8 2 23.2197 20.666 4.40312 0.0229545 0.0137651 -0.0203382
1867 7 1 20.817 7.59285 9.37846 0.000926804 -0.00836542 0.00321325
1743 7 1 23.2881 15.5907 13.9125 0.00219451 0.00852722 0.00209477
393 2 1 22.5954 9.37565 11.9882 0.00185011 -0.00240269 0.00398486
1433 6 1 21.0091 8.14536 9.57723 0.00373566 -0.00033463 0.000653681
1816 7 1 21.7893 7.56275 9.59132 -5.59736e-05 -0.00130443 -0.00219197
1324 5 1 22.9067 5.20561 12.7525 0.00267419 -0.00570803 0.00180213
177 1 1 13.646 8.36485 9.93507 -0.00589572 -0.00268174 -0.00424977
486 2 4 16.3059 11.4446 13.1478 0.0015766 -0.00391837 4.37703e-05
2073 8 1 19.7821 10.6087 10.0934 0.00255694 -0.00508498 -7.98923e-05
1206 5 1 20.212 12.0776 16.3791 -0.00453145 -0.00352215 0.00360144
2268 9 1 28.548 12.8443 11.0024 0.000686701 -0.00389247 0.00460794
2334 9 1 26.6558 9.57036 12.215 0.000770181 0.00338654 -0.000197096
195 1 1 31.7641 12.8533 16.0359 0.00535243 0.00156689 0.00433996
1065 4 1 21.4057 5.46318 7.47744 -0.00292733 -0.0104879 -0.00227276
1245 5 1 36.3339 8.82213 13.612 0.00717705 -9.15706e-05 0.00493208
1593 6 1 35.5444 14.398 10.4366 -0.000793656 0.0047677 -0.000760438
833 3 2 23.8725 2.51198 11.124 -0.0186309 -0.0125889 -0.00259128
2247 8 2 32.8642 11.2639 9.15812 0.00251982 0.00532489 -0.0118527
870 4 3 32.9345 8.02431 11.3409 -0.00358323 -0.0064467 -0.0041958
256 1 2 39.6973 31.7167 55.0342 0.0115659 0.0464897 -0.0382522
1209 5 3 44.7335 12.0051 10.2899 0.000370548 0.00332891 0.00297089
1173 5 1 38.8094 9.70774 14.6434 0.000739439 -0.00432993 0.00896474
906 4 4 42.2431 9.69056 15.7088 -0.00376447 0.00319591 0.00241114
895 4 1 38.9274 8.94536 12.2565 0.00135074 -0.00382256 0.00352435
120 1 1 43.9694 13.8482 13.5759 0.000828741 0.00546372 0.00224929
1358 5 2 45.8017 7.57272 11.0142 0.00566994 -0.000310797 -0.00159744
949 4 3 44.9343 7.7188 9.40361 -0.000149771 -0.00272952 0.00360686
1009 4 1 48.9058 15.0551 16.935 -0.00108408 0.000988949 0.00709778
1545 6 1 45.8752 18.2272 8.07406 0.000515615 0.0103376 -0.00173129
1210 5 4 50.2437 15.3599 14.6283 0.000927268 0.00366129 0.00317293
2105 8 1 52.0913 11.1012 8.88609 0.00428716 -0.00171721 -0.000679765
2762 10 2 44.1014 1.64613 8.70252 -0.00424605 -0.0132751 -0.00237772
174 1 1 51.9211 14.6175 10.363 0.00064263 0.000450043 -0.000958402
2331 9 1 50.8193 13.3414 7.74267 0.00297143 -0.00224086 -0.00652943
2670 10 1 56.2287 10.2918 9.75367 -0.0039603 0.00141926 -0.00363428
926 4 1 57.1638 9.55298 10.1688 -0.0051864 0.00361409 -0.00456811
526 2 2 57.6423 10.2839 12.0644 0 0 0
336 2 1 59.3417 12.1997 10.0517 0 0 0
1660 6 2 1.00357 3.92433 10.9125 0.00848237 -0.0200653 -0.00343077
2248 8 2 53.5157 11.8946 11.0456 -0.00839253 -0.00775639 0.00542164
2667 10 1 54.0531 8.92116 12.5904 0.00399331 -0.00181656 -0.00336003
273 1 2 1.40676 16.8754 13.5764 0 0 0
2577 10 4 1.74793 18.4327 12.2029 0 0 0
145 1 1 56.4657 20.4998 10.858 -0.00312145 0.00368215 -0.00247744
1238 5 1 13.8231 17.0847 7.56025 0.00883821 -0.00321791 -0.000214687
297 2 3 16.7512 17.5673 13.1798 0.00673932 0.00198683 0.00242874
1357 5 2 12.4565 53.2918 8.31324 0.00631817 -0.0495216 -0.0123261
1062 4 2 10.8155 20.5085 19.9695 0.0220035 -0.0040393 0.0597206
130 1 1 23.1614 19.6896 10.5662 0.0067178 0.00146386 -0.00404249
848 4 1 27.8459 28.0495 13.9803 0.00851736 0.0176416 0.0108092
943 4 1 22.7104 14.7449 9.95038 -0.00209126 -0.00180821 0.00359814
550 2 2 32.717 11.878 19.9381 0.00707124 -0.00764843 0.0153729
2520 9 2 28.1856 14.5163 9.2155 0.00520448 -0.00242381 0.00122682
1483 6 1 23.0889 24.4154 7.69243 -0.00112291 0.00479414 -0.00236966
2079 8 4 29.6194 20.7868 14.1505 0.000368738 -0.000375923 8.89492e-05
1538 6 1 26.7894 17.4659 13.3978 -0.00182486 -0.00795661 -0.00101212
2784 10 2 18.9963 7.43141 11.0055 -0.0173733 -0.0162816 -0.00142382
2118 8 1 33.7977 19.1695 13.9362 0.00202947 -0.00568215 -0.000556178
1420 6 1 31.5826 19.347 9.67772 -0.00129754 -0.002264 -0.00656183
233 1 2 34.2399 6.97422 23.7597 -0.00280288 -0.0250485 0.0289387
903 4 1 39.3308 21.6927 10.7122 -0.00496016 0.00536241 0.000187639
712 3 4 41.2354 17.9534 16.1313 -0.000931257 -0.00070206 0.00397573
1479 6 1 36.5031 14.2723 6.39362 -0.00264214 -0.00433855 -0.00548376
1344 5 2 36.7136 27.0441 4.50655 -0.00173154 0.0150632 -0.0146715
2362 9 1 42.1868 17.9951 9.33719 0.00324698 -0.00885439 -0.00644198
2621 10 4 47.4878 16.9456 10.3902 0.00239178 0.000866859 0.00513232
26 1 1 49.9815 17.7919 8.92564 0.00123885 0.00121129 0.00271786
2081 8 1 47.0131 20.2269 13.8516 -0.00469369 0.0088706 0.000361285
2749 10 1 49.798 17.5816 9.08703 -0.00408937 0.00871154 0.00114688
1419 6 1 47.5727 17.1005 14.5176 0.000388369 -0.00275915 0.00597546
374 2 1 50.2218 16.9392 15.7953 0.00107428 -0.00151158 0.00253943
230 1 2 53.3472 12.2047 8.87771 1.81159e-05 -0.000461187 -0.00415931
2003 8 1 53.9797 20.3123 14.9333 -0.0010581 -0.00180302 -0.00135796
2703 10 1 55.4049 20.6897 13.4654 0.00810825 0.00143931 -0.00607041
611 3 1 59.8715 16.6897 14.7952 0 0 0
1558 6 4 52.6872 21.7467 13.4983 0.000599599 0.0013459 -0.00140365
2204 8 2 51.3933 13.3502 10.9229 0.0111342 0.00208611 -0.0087755
504 2 2 1.28889 28.0648 9.24249 0 0 0
1626 6 2 0.677955 23.4086 12.9437 0 0 0
2215 8 2 11.0188 22.1552 13.5351 0.0205436 0.0254353 0.00825468
2453 9 1 15.4626 29.749 12.6992 0.00110065 0.00379355 -0.00179433
541 2 2 16.2902 16.6897 22.6858 -0.00246398 -0.0132503 0.0223552
2113 8 1 22.7932 24.5392 9.05404 0.00474139 -0.00205427 -0.000456421
2615 10 1 23.8182 23.8911 13.5048 0.00281273 0.00100268 -0.00192153
2780 10 2 23.2612 30.8493 19.0251 -0.0124944 0.00706905 0.0119319
73 1 1 26.5798 28.7638 16.6342 -0.00182972 0.00675018 0.00383922
1977 8 1 26.868 24.9399 14.9661 0.0014631 -0.000580112 0.00645641
1564 6 1 27.2981 28.0201 15.7317 0.00484226 0.00482419 0.00361713
2100 8 4 30.4394 27.6021 11.3715 0.00352835 0.000757603 -0.00116435
1501 6 1 23.0724 26.0067 11.0574 -0.00410971 0.00129213 -0.00148933
2291 9 1 25.5779 23.7451 11.7116 -0.00366972 -0.0024495 -0.000230719
1371 5 2 25.9103 23.4338 6.15703 0.00536516 -0.000264249 -0.0117795
1540 6 1 26.1404 28.1461 8.80375 0.00467132 -0.00207615 -0.0067105
2220 8 2 39.9756 41.9576 4.68162 0.01164 0.0248911 -0.00711501
1126 4 2 32.9985 28.1652 15.1974 -0.00259682 0.00959998 0.0075088
1211 5 4 30.4276 28.1861 7.81815 -0.000988238 -0.00108189 -0.00305739
1563 6 1 35.1148 19.2195 6.39997 0.00022628 -0.00702665 -0.0078074
2377 9 1 33.2917 28.749 10.7938 0.00209137 -0.0017992 -0.00704562
2378 9 1 44.507 23.2931 10.6372 0.00505073 -0.0048085 0.00546098
2077 8 3 35.7253 24.9056 11.2051 -0.00652867 0.00311918 0.000603342
626 3 1 46.7534 26.0239 12.4131 0.00499944 0.00635919 -0.00191059
2405 9 4 45.8726 29.498 12.3865 0.00237786 0.0052844 0.00479675
990 4 1 37.0724 23.8753 6.86861 -0.00210051 -0.00213222 -0.00499434
2572 10 1 45.8251 22.2015 16.6352 0.00389721 -0.00549125 0.00538392
2602 10 1 42.6394 24.5076 15.5743 -0.00312117 -0.00355193 0.0040365
805 3 2 45.1663 18.5594 9.24016 0.00454203 -0.0189331 -0.00869558
237 1 2 48.5415 23.0308 8.37872 -0.00973706 -0.00166327 -0.0144459
151 1 1 45.7655 25.2787 12.8246 0.000725655 0.000821068 0.00390466
985 4 1 51.6952 23.1383 9.29185 -0.000872866 0.000218035 -0.00204951
2559 10 1 56.1264 26.8017 8.4682 0.000221605 0.000980406 -0.00172529
1477 6 1 52.6092 24.6018 9.38954 0.00122363 -0.00232917 -0.00145742
1697 7 1 53.6627 23.515 13.5706 -0.000632082 -0.0089435 0.000647996
1526 6 4 57.7214 28.4683 8.92827 0.00206819 -0.000841876 -0.00156187
508 2 2 59.6874 28.5706 9.49677 0 0 0
2232 8 2 58.4871 24.0095 8.20729 0 0 0
1997 8 1 58.8592 24.7872 9.28334 0 0 0
2797 10 2 59.2695 24.4339 10.1845 0 0 0
2022 8 1 54.8094 24.1898 10.9286 0.00619447 -0.00543198 0.0014928
228 1 2 52.4224 25.0273 13.9202 -0.00589634 0.0115496 -0.009569
2588 10 4 5.72273 34.8923 7.94441 -0.00752684 -0.00144478 -3.91756e-05
377 2 1 1.67577 35.304 13.7001 -0.000668452 0.00534064 -0.000529009
558 2 2 0.125292 35.4179 12.5689 0 0 0
832 3 2 58.2755 29.3617 3.19733 0.0150131 -0.0030223 0.000943574
1931 7 2 4.82884 38.5384 11.332 0.0124379 -0.00749946 0.00660327
1182 5 1 7.84218 32.4776 10.6728 0.00397158 0.00802343 0.000272165
2344 9 1 7.50657 31.197 11.4713 -0.00496257 -0.00983983 0.00211947
1084 4 2 9.8645 41.5024 17.3016 0.00985103 0.026985 0.0268181
1731 7 4 21.1832 33.3325 9.3532 -0.000682683 0.00586625 0.00284142
1274 5 1 15.1007 30.2273 9.81888 -0.00202243 -0.00167457 0.00343949
2135 8 1 23.1127 34.487 13.2313 0.00150517 0.0024783 -0.000809972
999 4 1 16.2175 28.0347 8.04837 -0.00105185 -0.00747013 -0.00194246
289 2 1 18.8334 37.3308 6.53804 0.0038681 0.00367571 -0.00813679
2159 8 1 20.0728 29.6719 6.1301 0.00103978 -0.00441241 -0.00652339
1369 5 2 18.7278 23.5753 16.8894 -0.00196102 -0.0256171 0.00933044
1240 5 3 20.2866 34.7652 9.27776 -0.00320214 0.00498582 -0.00849982
1954 7 2 25.8458 38.2489 2.95446 0.0175325 0.00336089 -0.0147061
2128 8 1 20.3089 35.9964 14.3712 0.000803487 0.00251404 -0.000709483
1376 5 2 14.9717 19.6816 3.81069 -0.00347343 -0.0260899 -0.0156801
957 4 1 24.7801 33.9443 9.70401 -0.00378485 -0.00119613 0.00379169
2369 9 1 28.5494 32.5117 7.67446 0.00186974 0.00447397 -0.00111025
2516 9 2 27.4439 35.662 0.608116 0.000656591 0.0116379 -0.014357
32 1 1 28.634 28.4027 16.5669 -0.0010143 -0.00370503 0.00370299
187 1 1 29.7752 33.4862 12.9104 0.00301455 -0.00668915 0.000129814
607 3 1 36.1759 38.6921 11.3411 0.00777312 0.0109788 -0.00155802
2638 10 1 37.418 31.0156 8.38038 0.000860698 0.00152126 -0.000581762
62 1 1 32.0215 35.5697 12.5685 -0.0029923 0.00678081 -0.00144639
1461 6 1 34.5714 32.1007 10.0852 -0.00466417 0.00279558 -0.00310803
2561 10 1 32.8784 39.4336 8.73414 0.00242704 0.00790466 -0.000942186
403 2 1 34.9845 37.3514 14.9069 0.000116046 0.00140184 0.00296069
1895 7 1 30.5099 32.3704 15.171 0.000960487 -0.00528856 0.005009
2160 8 1 39.6855 32.1945 12.0184 0.00322525 0.00189915 0.000237737
1050 4 4 42.1216 34.229 14.9087 -0.000194835 -0.0012882 0.00505247
19 1 1 36.1955 36.8108 10.4219 -0.00411892 0.00192318 0.000380071
2663 10 3 44.043 38.6301 5.63892 0.00506994 0.00265555 -0.00834762
1514 6 4 42.1193 31.5733 7.93042 -0.00512883 0.000628611 -0.00351264
2196 8 2 40.9587 32.9535 21.2764 -0.0120968 -0.00924272 0.0193116
1588 6 3 45.8705 38.6011 16.1123 -0.00142344 0.00721576 0.00869248
1595 6 1 49.0453 29.7056 15.7481 -0.0021717 -0.00188092 0.00427758
669 3 4 43.706 30.8269 10.8107 -0.00549747 -2.18032e-06 0.000610379
2277 9 1 43.2252 26.8152 11.3832 -0.00463538 -0.00726367 4.70725e-05
1771 7 1 48.8924 32.1657 14.2997 -0.00222035 -0.00857916 -2.25946e-05
861 4 3 49.1478 33.5546 6.01073 -0.0017995 -0.00623736 -0.00452317
423 2 1 52.2298 31.1479 13.9874 -0.0051114 -0.00557279 0.00110626
2499 9 2 55.1529 28.6648 11.5146 -0.00372364 -0.0138888 -0.012022
2690 10 1 52.2871 33.926 11.5392 0.000376387 0.000281014 -0.00298504
2430 9 1 55.0939 30.2208 10.4542 -0.0049396 -0.000221327 0.00374203
1532 6 1 55.7406 32.0642 12.9861 0.000246107 -0.00365474 0.00230221
65 1 1 57.2707 34.4667 12.4181 0.00122275 0.000419731 0.00167672
1675 6 2 53.5545 31.124 12.0218 0.0129114 0.00494882 0.00923621
1404 5 2 58.9415 38.4561 0.784535 -0.018591 0.0121846 -0.0292541
1429 6 1 5.55537 43.554 7.56148 -0.00901398 -0.0013248 -0.00213035
2701 10 1 0.911695 43.7344 11.8842 0 0 0
2260 9 1 2.50243 44.7196 14.1748 0 0 0
1674 6 2 0.650151 44.4036 10.1958 -0.0101138 0.00234942 -0.00889727
637 3 1 16.1254 43.9671 13.8096 0.00854789 0.0111114 0.00582246
2698 10 4 12.6172 39.9485 10.9397 0.000601313 0.00419241 0.000116041
2398 9 1 9.66521 38.619 13.6898 -0.00105898 -2.0696e-05 0.00502708
2460 9 4 12.1993 39.3218 5.72482 0.001431 -0.00368714 -0.00745462
178 1 3 14.9175 41.6271 7.07778 0.00157491 -0.00652716 -0.00581836
1940 7 2 10.6157 53.7827 27.4598 0.00111921 0.0237921 0.0299878
989 4 1 18.9612 41.7504 14.6147 -0.00134628 0.00603594 0.0105918
798 3 2 16.1272 40.5481 18.4221 -0.00726443 0.00450518 0.0127494
413 2 1 14.0439 38.4391 12.0051 -0.00246371 -0.00451569 0.00902201
1659 6 2 20.3582 43.2875 21.1835 -0.00294888 -0.000122952 0.0230961
464 2 4 28.3033 44.5514 11.6238 -0.000875372 0.00802264 -0.00203562
769 3 4 24.6527 44.9698 9.37275 -0.00198113 0.00284778 -0.00430812
326 2 1 22.2011 45.8627 11.7791 -0.00318969 0.00240477 -0.00272889
1311 5 1 29.7076 41.001 3.79012 0.0029696 -0.00217177 -0.00982323
1235 5 1 28.5954 37.5765 9.49705 -0.00247986 -0.000463147 -0.00271059
1825 7 1 21.7225 37.5936 9.81637 -0.0103471 -0.00172051 0.000936944
2643 10 4 30.9286 45.7017 9.30599 0.0138729 0.00399307 -0.00892203
2059 8 1 37.4302 44.4473 13.5948 0.0113891 0.0122839 0.00131308
579 3 3 33.3881 39.5891 14.3962 -0.00242327 0.00268799 0.0020144
2508 9 2 31.4651 43.6934 3.52603 -0.00876589 0.00910164 -0.00958261
531 2 2 45.0793 47.4677 16.3809 0.0251141 0.00599468 0.00684781
1030 4 4 30.1235 39.2923 9.5359 -0.00418482 0.00111169 0.00128415
408 2 4 35.0425 42.349 12.9016 0.000149246 0.0018441 0.00298576
1729 7 3 34.8615 43.2532 11.178 0.00465369 -0.00233393 -0.00108822
896 4 4 38.6944 43.7326 13.7322 0.00495163 0.00733748 -0.00176167
502 2 1 46.2921 35.3413 13.7537 0.00558179 -0.00645219 0.00929713
1598 6 1 37.954 38.0187 6.75387 -0.000712803 0.000960273 -0.00707971
691 3 4 37.9854 45.0625 11.9948 -0.00191389 0.000950468 0.00300495
1330 5 1 38.2268 39.0912 10.5755 -0.00437117 -4.09475e-05 0.000333927
25 1 1 43.7952 46.5147 9.47708 0.000468621 0.00417387 -0.00335329
702 3 4 42.3849 40.6859 9.94269 -0.000890911 0.00156989 -0.00321973
948 4 1 42.569 43.6788 12.4208 0.00451882 0.00834622 -0.00274669
1770 7 1 38.768 41.6656 8.85194 -0.00262647 0.00113621 -0.00671989
1778 7 1 46.4577 39.7661 11.8394 -0.00431699 0.000626377 0.00195645
1851 7 1 45.5244 45.2389 14.2543 -0.00173857 0.00204774 9.39396e-05
2666 10 1 51.5951 42.587 14.5803 0.00216778 0.00378054 -0.000373564
568 3 1 53.1988 38.5132 7.77332 0.00135515 0.000493245 -0.00257068
1590 6 1 57.7917 39.5331 12.7218 0 0 0
2553 10 3 59.7062 43.8516 11.0836 0 0 0
2795 10 2 59.2943 38.2692 19.3221 -0.00308533 -0.0276164 0.01598
959 4 1 1.70151 46.9187 7.79658 0 0 0
1680 6 2 9.11066 48.9984 18.2802 0.00365158 -0.00493125 0.0131295
1961 7 2 9.07104 33.0026 6.14519 -0.0114006 -0.0345509 -0.00661111
952 4 1 13.3091 52.4947 19.7216 0.00499689 0.00113059 0.0100083
1888 7 1 13.196 51.774 7.7341 0.00105691 0.00266806 -0.00208694
898 4 4 10.6956 46.5171 6.02027 0.00123966 -0.00193575 -0.0044716
1805 7 1 8.74637 46.9547 9.36064 -0.0131126 0.00514997 -0.000369501
320 2 4 7.40549 51.4844 10.2787 -0.00175915 -0.00365378 -0.00568302
1382 5 2 10.393 53.0023 7.33643 0.000385528 0.00638378 -0.0140712
2434 9 3 18.2301 48.0401 18.7232 0.00140084 0.00539815 0.010931
2604 10 1 18.9638 47.2233 11.7413 0.00020258 0.00393593 -0.00123967
1853 7 1 16.9866 51.4209 6.99252 0.00320951 0.00339337 -0.002649
2422 9 1 18.0904 48.3748 13.8772 -0.000327056 0.00162288 0.00428522
651 3 1 18.9965 49.8394 8.23092 0.00233814 -0.00124737 -0.00637924
1859 7 1 25.2313 45.548 12.6205 0.00888412 -0.0125612 0.00379932
134 1 3 21.409 50.3284 10.3086 -0.0014846 -0.00278576 0.00279156
207 1 1 15.5654 45.893 9.53409 -0.00813955 -0.0017736 -0.00585681
2519 9 2 23.0821 56.9894 29.7291 0.00241499 0.0232323 0.0400832
1026 4 1 28.739 47.7467 10.7204 0.00758677 -0.00266409 0.000411776
1071 4 2 42.1866 41.2096 24.4267 0.0183859 -0.0134411 0.0217416
2478 9 2 45.4582 41.1663 15.9917 0.0181848 -0.0214502 0.00247052
1366 5 2 35.4836 0.369287 15.1517 -0.0021769 0.0256077 0.00518844
1268 5 4 33.8544 44.8031 7.89456 -0.000644057 -0.000446586 -0.00267714
1318 5 1 37.0479 43.9961 18.9732 0.00920154 -0.0113297 0.00824239
694 3 1 37.6783 51.0635 15.4892 -0.00127257 0.00271295 0.00293732
1837 7 1 49.5592 46.5508 9.65465 0.00308362 -0.00388942 0.00274546
1439 6 1 52.179 49.2241 12.5766 0.00439523 0.00266748 -0.00240969
301 2 1 49.63 45.4187 8.68699 0.000572802 -0.00302143 -0.0033349
1800 7 1 50.6515 50.8031 10.3517 -0.00170697 0.00126492 0.00248082
1273 5 1 46.6978 49.0352 12.6585 0.00109428 -0.00558168 -0.00226445
1228 5 1 51.4971 54.3993 8.19616 -0.00290717 0.00287456 -0.0056829
1379 5 2 6.8358 51.5201 10.939 0.00319822 0.0186788 0.0260016
556 2 2 52.7473 45.8484 13.6002 0.0116665 -0.0163791 -0.012263
2400 9 1 53.6043 46.3368 7.32972 0.00141676 -0.00183981 -0.00166504
965 4 1 57.5458 51.8668 11.5276 0 0 0
2523 9 2 9.42106 51.7118 18.1796 0.0254012 -0.00169785 -0.0244437
2414 9 1 7.89533 53.2648 10.193 -0.00679552 -0.0058868 -0.00220608
1857 7 1 9.21192 0.804459 8.87515 -0.00888911 0.00432374 0.00192294
2696 10 1 10.683 53.4091 9.2412 0.000118996 -0.00100519 -0.00092808
2346 9 3 11.8072 58.4477 4.62077 -0.00020768 0.00177217 -0.00662802
1702 7 1 14.2397 58.163 15.7576 -0.00132323 0.0031196 0.00476966
1222 5 4 9.50281 57.1598 9.14807 0.00144406 -0.000778231 -0.00393163
1261 5 1 21.1205 54.6825 17.5033 -0.00214235 -0.00527495 0.0103331
1469 6 3 14.8941 57.2458 9.7307 -0.00133249 -0.00387152 -0.00167643
2314 9 1 21.0214 58.0955 7.8288 -0.000726262 -0.00358235 -0.00718442
1158 5 4 21.0783 55.3087 17.4963 0.00207304 0.0011296 0.00620834
2392 9 1 17.5741 55.999 16.534 -0.00640044 0.00312537 0.00612402
562 2 2 13.7953 1.59296 11.0682 -0.0111573 0.0089177 0.00285068
1372 5 2 12.1235 55.0189 8.03615 -0.0193792 0.000498324 -0.0017295
2655 10 1 19.545 53.6406 9.4096 -0.000277101 -0.00842434 -0.00599884
1850 7 1 28.809 56.0523 12.0162 0.00363415 -0.00661327 0.00544274
2068 8 4 26.5271 59.6069 19.1353 -0.000129693 0.00409209 0.0122091
742 3 3 22.6195 49.9089 6.1707 -0.00182445 -0.00895261 -0.00339673
1178 5 4 26.0972 57.5727 12.6208 -0.000539182 0.000680471 0.00256918
1017 4 4 30.4763 52.8203 12.4492 0.000285231 0.000604535 0.00516272
42 1 1 32.4616 51.364 9.88643 -0.00663012 -0.00273538 0.00453649
2253 8 2 30.5532 48.6133 12.0166 -0.0126285 -0.0167716 0.00236273
1745 7 1 39.4647 54.7846 5.31324 0.0045272 -0.0045939 -0.00518329
143 1 1 30.6842 58.8029 8.23202 -0.000733883 0.00401559 -0.0029967
1054 4 1 32.6496 51.3034 15.3358 -0.00528188 -0.00314216 0.00234579
1202 5 4 40.3639 54.5791 13.953 -0.00305373 0.00132625 0.000298437
2257 9 3 38.785 53.7818 10.2846 -0.00603001 -0.0019023 -0.00230057
338 2 1 38.8414 59.8751 6.40409 -0.00138436 0.00320611 -0.00906299
1744 7 4 51.8945 58.8073 9.44587 0.00480227 0.00267842 -0.000311285
1717 7 1 49.0076 54.8843 9.13915 -0.00120681 -0.00370948 -0.00374353
2419 9 1 42.4416 54.6368 11.7468 -0.00543544 0.000365111 -0.00130022
846 3 2 47.2851 0.803417 11.9853 -0.0112395 0.00844887 -0.00365257
2327 9 1 46.2538 0.518221 11.2646 0.00246308 0.00254622 -0.00628764
817 3 2 54.1332 55.3535 13.5573 -0.00505168 -0.00629546 0.021656
83 1 4 53.3955 55.3678 10.4261 0.0013429 -0.00103401 0.00270902
2705 10 1 53.9778 53.8197 12.7129 0.00408299 0.00680446 0.0011857
2089 8 1 57.1728 59.7158 10.0458 0 0 0
1627 6 1 57.7021 53.0184 11.7168 0 0 0
2721 10 1 59.132 55.4719 12.4388 0 0 0
2140 8 1 58.5751 53.005 11.289 0 0 0
2717 10 1 4.86131 59.7114 15.3264 0.0072208 0.00888531 0.0100717
50 1 4 1.64431 5.18743 18.2259 0 0 0
2124 8 1 0.943841 7.35431 20.4733 0 0 0
1049 4 1 2.69652 2.70796 21.9584 0 0 0
2252 8 2 0.123491 1.86645 15.2008 0 0 0
70 1 1 3.53154 2.60871 17.7655 -0.000842748 0.0070031 0.00286749
2713 10 1 2.94788 1.86981 20.8069 -0.0122554 -0.00190369 -0.00363058
169 1 3 4.68213 2.60688 21.7889 0.00186095 -0.00178179 0.00918098
168 1 1 15.3439 6.54608 18.3712 0.0015647 0.00213734 -0.00204026
636 3 4 13.3939 3.43111 19.2197 0.00103337 -0.00336625 0.000361208
962 4 4 12.3812 2.59499 21.3765 0.00398798 -0.000670054 0.000456444
1430 6 1 9.7539 3.92405 19.972 -0.00291341 -0.00384049 0.0006804
2506 9 2 6.07457 12.0125 17.1282 -0.0137946 -0.0112243 0.0229663
1247 5 1 19.339 2.43106 25.7042 -0.003051 0.00157901 0.011342
1088 4 2 12.9775 56.6991 27.4947 -0.00710498 -0.0108471 0.0124899
638 3 4 20.5579 3.85391 24.4377 -0.00340751 -0.00224801 0.00499647
59 1 3 20.3437 4.58404 15.8522 -0.00254683 -0.0010209 -0.00180658
129 1 1 21.273 7.4507 14.6401 -0.0013871 0.00501207 -0.00312469
1632 6 2 33.6582 1.88081 22.0606 0.0252319 -0.00774769 0.00231941
135 1 1 16.9925 3.79153 14.5221 -0.00537985 -0.00402632 -0.00241984
2106 8 1 23.1258 59.7737 19.2527 0.00528319 -0.00390199 -0.00357691
2070 8 4 19.0132 3.98396 18.1951 0.00381085 -0.00408379 -0.00698098
1560 6 1 19.1503 3.24759 17.2051 0.00666162 0.00476943 -0.00792953
2263 9 1 25.4901 59.4526 22.3157 0.00056761 -0.00536314 0.00580407
2062 8 1 32.7741 58.6327 20.516 0.0122344 -0.0092032 0.00522776
153 1 1 22.9765 3.98993 16.1051 -0.00150445 0.00470289 -0.00163649
35 1 1 30.3189 3.48728 19.6353 -0.00281753 -0.00135084 0.00457679
1847 7 1 35.1665 0.344327 19.2305 0.00187405 -0.00291657 0.00346595
1312 5 4 37.3407 0.476872 19.7129 0.00695546 -0.00824914 0.00332649
1078 4 2 35.0239 2.91425 10.2867 0.0093276 -0.00765844 -0.0171025
1747 7 1 37.6158 59.711 20.6999 -0.00343062 -0.000834435 0.00686958
1319 5 3 43.7669 7.37677 21.6033 0.000183092 0.00146308 -0.000521273
167 1 1 43.2547 3.14052 19.446 -0.00164346 0.00188438 -0.00287839
1397 5 2 48.3227 10.4058 26.4127 0.0174766 0.0147542 0.01036
1386 5 2 43.3242 20.1165 21.7843 -0.00249057 0.027988 0.00387522
2423 9 1 43.7409 3.39022 20.4038 -0.00161409 -0.005676 -0.00262134
193 1 4 45.2067 5.56665 17.5727 -0.00685419 0.000862536 0.00479567
1704 7 1 44.5759 0.0538125 17.9912 -0.00121109 -0.00359619 0.00379159
1753 7 4 53.4436 3.4168 21.7557 -0.000453661 0.00129218 0.00177023
2660 10 1 49.8252 2.75601 18.8127 -0.00429989 0.00231587 0.00578573
2613 10 1 46.1947 1.84052 21.771 -0.0114621 0.00148492 0.00200245
2046 8 4 50.1586 5.11834 15.1934 -0.0031486 -0.000816411 0.00165651
1960 7 2 49.5066 0.685942 20.0439 -0.00248731 -0.00802504 0.00190141
1510 6 1 47.7159 0.291168 17.8543 -0.000696632 -0.00349409 -0.00639951
1203 5 1 50.829 5.16397 21.328 0.0012669 -0.0034613 -0.002119
1394 5 2 42.6308 11.1197 10.1699 -0.00590384 0.0148974 -0.0167674
1113 4 2 57.3744 8.0069 19.5412 0.0065708 -0.00216388 0.00874712
1408 5 2 55.0528 0.873084 19.7813 0.00139768 0.00768586 -0.0128461
2626 10 1 53.0715 4.60393 17.5388 -0.0065211 -0.00176494 0.00187379
2725 10 1 59.0802 0.987784 15.5295 0 0 0
610 3 3 58.764 7.25621 16.8172 0 0 0
2820 10 2 55.2729 4.57862 17.2305 -0.0146419 -0.0140989 -0.000267542
2504 9 2 53.9897 7.51435 15.7741 0.00251929 0.00688091 0.00091206
2513 9 2 2.42839 9.12059 19.709 -0.000210178 -0.000907588 0.00569421
864 4 1 6.795 7.64598 17.378 0.00140677 0.00333016 -0.00575317
214 1 3 2.38546 13.2716 15.4246 0 0 0
2121 8 3 0.453045 13.706 22.0152 0 0 0
2082 8 1 1.27319 12.9536 16.9868 0 0 0
2032 8 1 2.71163 10.7487 21.0626 0 0 0
334 2 4 0.247983 14.6843 22.3362 0 0 0
1506 6 4 6.08954 11.1386 18.4019 0.00569803 -0.0117753 -0.00424613
2709 10 4 5.25819 8.41592 19.0033 -0.000742549 0.00197495 -0.00460792
2720 10 4 1.98907 9.31452 21.2061 0.00255669 0.00171449 0.000142635
114 1 1 7.58231 8.40468 19.8501 -0.00634002 0.00338559 -0.00222967
2315 9 3 11.5022 9.3887 20.3832 -0.00164818 -0.00245483 0.00620332
203 1 1 12.8528 14.9803 20.7896 0.00260643 0.00800254 0.004161
554 2 2 9.65151 21.6458 26.8442 -0.00242075 0.0181866 0.0115726
1617 6 1 19.3168 8.35249 18.7572 0.0133374 -0.000938566 -0.00154095
1567 6 1 13.6371 14.6949 14.5453 -0.00198829 0.00488959 -0.00698307
866 4 1 22.4766 12.247 11.1614 0.00227567 0.00545042 -0.00901229
501 2 1 23.4503 15.7873 18.7175 0.0088204 0.00338107 0.00360431
1749 7 1 27.6319 7.47828 18.703 0.00761784 -0.00511229 -0.000988707
880 4 1 26.2904 14.6766 21.8744 -0.000478461 0.00206896 0.00478494
371 2 1 28.4626 9.86697 16.0454 -0.00118004 -0.0023546 -0.00324596
923 4 1 25.8085 10.9507 17.8073 0.00289264 0.00475305 -0.00906117
247 1 2 33.9175 13.5318 17.6795 0.0133003 -0.000269409 -0.00634139
2556 10 1 33.8409 9.18113 20.1585 0.009249 -0.00222838 -0.00362589
1779 7 1 31.2328 12.8756 21.1833 0.00389338 -0.00105971 -0.00136503
551 2 2 33.0432 1.97126 21.225 -0.00379319 -0.0135632 0.00722359
1416 6 4 31.6892 15.978 25.7547 -0.00143688 0.00295 0.00703467
2310 9 1 32.6298 16.1034 14.7608 0.000256084 0.00411394 -0.000635225
2633 10 1 32.3245 12.2575 20.1776 0.000370448 -0.000222452 0.000401859
1531 6 1 32.58 15.1297 13.4739 -0.0015733 0.00366307 -0.00706431
1927 7 2 30.3931 9.90215 14.2519 -0.00426389 -0.00718096 -0.00594379
156 1 3 39.9487 12.9332 20.1761 0.000379771 -0.000453981 -0.00107539
1192 5 1 38.2248 12.6977 14.0972 -0.00481918 -0.000423082 -0.00311928
2016 8 1 42.8365 8.50019 21.8159 0.00353005 -0.00157728 -0.000537512
1068 4 2 31.6424 15.5759 17.1731 -0.0180228 0.00237123 -0.00344596
106 1 1 48.3504 9.33266 11.9581 0.0114212 -0.00931851 -0.00883558
1446 6 1 50.3785 7.62726 20.1003 0.00804311 -0.00356525 0.00141631
2323 9 1 43.9894 14.4844 18.9813 -0.00767061 0.000253883 0.0020853
1810 7 4 51.7375 9.98676 20.5515 -0.00266231 -0.001475 -0.00322792
482 2 3 47.4658 8.79597 17.2589 -0.00234733 -0.00317502 -0.001802
2769 10 2 42.0297 28.1512 22.3388 -0.0125297 0.028161 0.00458294
709 3 1 50.5364 12.2398 14.8502 -0.00906283 -0.000777474 0.00332774
887 4 1 52.2556 13.0869 22.6142 0.00214472 0.000262434 -0.000124383
539 2 2 56.9225 15.4877 21.8972 0.0133658 0.00581405 -0.00353577
1523 6 1 56.2261 8.5216 19.4883 0.00374103 -0.0103616 0.000708913
1123 4 2 58.0877 8.14609 21.012 0 0 0
2015 8 1 58.5482 10.0214 18.4905 0 0 0
1881 7 1 56.0242 11.8802 17.0366 0.000832235 -0.00580271 -0.0024345
2060 8 1 55.565 14.554 18.4042 0.0014635 -0.00412119 -0.00544779
2803 10 2 57.2649 17.8739 9.26618 -0.0277543 0.0253502 -0.0280046
1349 5 1 58.9255 14.6737 20.5629 -0.00612032 -0.00198327 0.00373836
1082 4 2 9.45702 19.8353 19.885 -0.00962964 -0.000601841 0.0094321
961 4 1 9.02679 17.8146 14.9291 0.00225052 0.00332062 -0.00214124
1755 7 1 23.3747 18.2319 24.3807 0.00763624 0.0013218 0.00953312
1760 7 3 17.9392 17.7397 16.2906 -0.00648168 0.00330182 0.000912053
2431 9 1 18.5313 20.802 23.9538 0.0013509 0.00456389 0.00550573
2382 9 4 18.5697 23.1375 17.8324 0.00130885 0.00484584 -0.000677057
2432 9 1 16.2657 17.2798 14.2907 -0.000179632 -0.00184832 -0.00193893
438 2 3 17.296 15.2378 20.4128 -0.0027222 -0.00136472 -0.00102032
1231 5 3 17.8876 22.0921 16.1648 0.00129514 -0.000748875 -0.000125301
253 1 2 20.767 15.8387 27.5032 -0.0105284 -0.00281882 0.0148413
1987 8 1 28.5665 20.5277 22.9411 0.00646866 0.000339775 0.0056729
128 1 1 29.2959 19.3182 22.2117 0.00358835 -0.000587182 0.00453048
2125 8 1 29.5798 22.7431 12.8048 0.00397656 0.00142861 -0.0052825
641 3 1 28.3535 17.5007 13.4651 0.00369876 -0.00191614 -0.00749676
36 1 1 23.6517 17.2554 18.4696 -0.00667639 -0.00231764 -0.000809203
2050 8 1 27.135 19.8093 14.557 -0.00500731 -0.00381767 -0.00295653
1130 5 1 35.9021 14.5519 18.1826 -0.00164109 -0.00414091 0.00412586
2165 8 3 32.1083 21.1915 22.3215 0.00227423 0.000507351 0.00137095
2278 9 1 35.4272 18.3116 17.3215 0.000815624 0.00285956 -0.00083295
1521 6 1 35.6338 20.6596 14.9707 -0.00147722 0.00389386 -0.00133753
1547 6 1 30.6358 22.7669 11.9257 -0.00088272 0.00484669 -0.00733273
2410 9 1 39.8153 16.4619 14.1043 -0.0031086 0.000248669 -0.00236331
2544 10 4 46.1541 13.2591 22.9345 0.00311881 -0.00731809 0.00108265
1793 7 1 43.746 19.1177 20.7128 0.0021698 0.000827067 -0.00137742
116 1 4 42.2451 17.2196 19.2827 0.000833308 -0.00661804 0.00270747
855 4 1 48.952 16.4423 17.8383 0.0004547 0.00235843 -0.00149557
2418 9 4 46.2692 15.4533 20.6598 0.00226612 -0.00175977 -0.000685918
1574 6 1 51.3421 17.0816 17.1665 0.00220448 0.00275982 -0.00396519
1426 6 4 48.7368 14.8884 22.8934 0.000797479 -0.00296196 0.00088594
2632 10 4 51.8514 16.0036 18.2905 0.000815347 0.000189564 -0.00112022
1832 7 4 51.84 21.2168 16.2021 0.000172252 0.00580943 0.000138716
437 2 1 51.9144 22.5645 21.2065 -0.0010169 -0.00199079 0.00174046
262 1 2 55.0418 19.2916 17.7413 0.00153795 0.00693261 0.000789466
1754 7 1 52.2815 21.3294 19.0214 0.00186709 0.000199269 0.000525849
1436 6 1 53.397 19.0617 20.0926 -0.00195505 0.00756884 -0.00347728
2175 8 1 55.4184 15.9618 22.458 -0.00105684 -0.00415764 0.00443378
2040 8 1 54.4881 18.7596 15.7107 0.000323772 -0.000143096 -0.00288287
548 2 2 58.3434 19.7018 15.4888 -0.00312175 0.00416389 -0.0124938
2774 10 2 6.58639 20.5558 24.2851 -0.00401332 0.0144219 0.000344912
1991 8 4 1.84768 23.7348 22.1494 0 0 0
251 1 2 2.90608 28.42 19.2691 0 0 0
2700 10 4 1.11816 21.6531 21.6606 -0.00120047 -0.00582503 0.00441288
2264 9 4 15.6443 25.5424 17.1245 0.00230501 -0.000466559 0.00129862
467 2 1 13.76 23.5427 18.7663 -0.002174 -0.0118833 -0.00148687
2777 10 2 32.0024 32.5991 14.9716 0.0217161 0.0168115 -0.00378614
1874 7 4 16.0922 27.6568 24.4409 0.000232716 -0.000204223 0.00483899
302 2 1 14.6333 19.797 23.3359 -0.00301337 -0.0113685 0.00406059
287 2 1 23.1811 24.325 19.2835 0.00575757 0.00200073 -0.00414401
2420 9 1 23.8615 27.7334 18.3188 0.000146449 0.00553304 0.00481978
1533 6 1 29.8896 36.1844 17.8526 0.00640133 0.0131031 0.00402814
1125 4 2 25.5063 27.9767 21.4705 -0.00235507 0.00364407 0.00520285
488 2 1 24.5208 27.5391 16.3486 -0.00521938 0.00375384 -0.000294719
1830 7 4 24.4477 23.9023 16.5276 0.000495768 0.00018563 -0.00213624
1752 7 4 29.003 25.8398 13.687 0.000211196 -8.84222e-05 -0.0035397
1600 6 1 23.3992 25.5771 18.8899 -0.0038315 0.000501234 -0.000197819
213 1 4 31.5032 23.4787 25.6484 0.0102987 -0.00956694 0.00844137
1829 7 1 28.1511 25.6438 21.5939 0.000836113 0.000150483 -0.00172921
2119 8 1 24.5807 24.3318 19.1941 0.000984567 0.000990084 -0.00612869
616 3 4 26.0816 29.3373 22.0203 -0.00294034 0.00145353 -0.000927173
1836 7 1 32.4819 30.7855 17.5553 0.00126789 0.00644195 0.00370583
2212 8 2 34.9837 15.8687 30.47 0.00809463 -0.016403 0.0182681
2145 8 4 33.4491 27.3673 18.3313 0.00575539 0.00321085 -0.00203292
1774 7 4 37.5003 22.751 18.9826 0.00438398 -0.00579151 -0.00228833
1029 4 1 30.8681 27.2573 22.2581 -0.00502706 -0.00284183 0.00148354
2225 8 2 38.5118 23.0351 12.942 0.00400974 -0.00878406 -0.010637
383 2 1 40.1232 25.625 20.6963 0.00430615 0.00597438 0.00413539
124 1 1 38.0992 21.9152 19.4204 -0.0026741 -0.00245097 0.00306015
1197 5 1 39.8049 28.3702 22.5451 0.00038839 -0.00125798 0.00399751
1935 7 2 35.4173 32.1948 15.1153 -0.0123816 0.0155895 -0.00988755
63 1 1 50.7498 25.4541 17.2263 0.000395581 0.000846009 0.00427493
842 3 2 49.6616 27.1668 27.3405 -0.026258 0.0158925 0.00809166
1388 5 2 42.6654 22.2538 25.7372 -0.0175557 -0.00598978 0.0105147
2375 9 1 48.7935 29.6991 15.923 -0.00773662 0.00411465 0.00112427
814 3 2 2.17204 27.3998 25.9589 -0.00555172 0.0022511 0.0251906
2741 10 1 55.9239 26.6629 14.3235 0.00267729 -0.00331834 -0.00711497
2714 10 1 0.709712 26.5854 20.1021 0.0045748 -0.00170862 -0.00169062
2087 8 1 55.1153 26.8799 18.8378 0.00199653 0.000354168 -0.00113684
1118 4 2 58.2709 28.7148 15.4501 0 0 0
425 2 1 57.3027 24.2635 19.9376 0 0 0
2597 10 3 57.3089 27.6281 17.3649 0.00199027 -0.00258095 -0.00306076
1653 6 2 55.2759 29.2291 20.3309 -0.0194751 -0.0038216 -0.00104267
528 2 2 0.416205 33.6262 21.0923 0 0 0
2182 8 1 1.47715 35.267 20.3514 0 0 0
2002 8 4 2.28369 35.0732 17.7602 0 0 0
1057 4 1 7.81211 31.4674 20.2816 -0.00448669 0.00053877 -0.000916407
2426 9 4 7.5248 32.9814 20.9058 0.000681598 0.00375405 -0.00938277
2223 8 2 54.2364 34.1007 20.461 -0.00168142 -0.017113 -0.000778314
2320 9 1 9.93316 37.4453 24.254 -0.00156198 0.00631233 0.006584
565 3 3 20.0519 27.4784 17.8126 0.00813122 -0.00602328 -0.00215787
1723 7 1 20.8692 31.7216 19.1159 -0.00106188 -0.000159044 0.00410569
420 2 4 15.7537 30.7105 22.1662 -0.00233753 0.000302052 0.00412922
2723 10 1 18.8403 35.707 21.5477 0.00172775 0.00229906 0.00146123
2639 10 1 19.5597 29.3448 18.8461 -0.000978434 -0.00457082 0.000666208
1114 4 2 23.0513 28.745 14.3856 0.00489523 -0.0150467 -0.00293152
2203 8 2 23.4141 22.9097 35.0956 0.0143223 -0.0157498 0.0384656
69 1 1 27.3457 32.4481 17.6807 -0.00192083 -0.00474359 0.00399057
27 1 1 28.8062 33.7288 19.982 0.0047586 0.00514267 0.00119286
1553 6 1 24.7728 32.6301 18.6113 -0.00659171 0.004435 0.00196762
2133 8 1 24.5703 38.551 18.8548 0.00328762 0.00574869 0.000120321
2289 9 1 33.3163 33.2776 17.7765 0.00820672 -0.00340874 -0.000560562
800 3 2 20.6364 40.4626 17.3902 -0.0303168 0.0150807 0.003031
2339 9 4 31.1307 36.7978 20.0457 0.00144017 6.27833e-05 0.000529966
1773 7 3 46.2511 27.3393 17.3733 0.00552353 -0.0085032 0.00432475
2764 10 2 35.7978 39.4666 15.4122 -0.0180074 0.0140049 -0.00100238
2279 9 1 42.7132 31.0065 19.4101 -0.00210774 -0.00366584 -0.0022399
1663 6 2 41.2701 35.6374 17.1497 -0.00799055 0.00706374 0.00391722
2511 9 2 49.3084 28.2696 15.2537 -0.00415823 -0.0102547 -0.0078136
461 2 1 45.615 29.3091 25.0228 -0.0031125 -0.00622463 0.00728371
2688 10 1 48.5088 33.3721 18.0278 -0.00166862 0.00229455 -5.96931e-05
1488 6 1 50.8104 32.1356 19.7765 -0.00252427 -0.00246246 0.00116799
2023 8 1 50.5093 36.1764 18.5463 -0.00327538 0.00441022 -0.00101773
774 3 1 46.8348 28.291 15.6592 -0.00150446 -0.00352816 -0.00106495
93 1 1 49.1087 34.9887 16.0204 -0.00331558 -0.00291538 -0.00129094
2345 9 1 44.7718 36.012 16.1428 -0.00147717 -0.000536012 -0.00241253
2024 8 4 46.76 30.7695 16.0172 -0.00584652 0.00109749 -0.000916558
463 2 1 48.314 33.8763 12.7747 -0.00151832 -0.00102423 -0.00581015
1647 6 2 53.6045 29.015 17.8917 0.0159449 -0.00790446 -0.0100732
1902 7 1 55.3038 28.9848 18.9932 -0.000853589 -0.00442747 -0.00212419
1522 6 3 1.44865 32.109 20.2504 0.00320514 0.00108898 0.00212886
2192 8 1 54.7063 34.2598 21.6539 0.00349556 -0.00142294 -0.00160946
1543 6 1 57.962 31.277 21.3382 0 0 0
1537 6 4 54.8314 36.5818 20.4522 0.00150424 0.00181017 -0.00443198
856 4 1 57.9699 36.355 22.4343 0 0 0
1448 6 4 56.243 36.3163 16.1778 0.00122492 0.00166065 0.00137637
1622 6 1 56.0259 34.3319 18.0645 -0.00567886 0.000763941 0.00671042
524 2 2 44.9879 31.2968 17.3241 -0.0172493 -0.00686799 -0.00870766
1056 4 1 0.903568 41.3577 22.179 0 0 0
1140 5 1 2.64434 43.4376 21.9976 0 0 0
487 2 4 5.08986 38.722 19.4925 -0.0127643 -0.00116631 0.00378863
1980 8 4 59.3444 45.1865 15.769 -0.00225209 0.00107638 -0.00309602
1283 5 1 3.7412 39.164 22.9949 -0.0065071 -0.00281355 -0.00463282
653 3 1 11.3296 38.7172 13.1476 -0.00571284 0.00199481 -0.00858596
1788 7 4 9.28716 44.7441 21.0843 -0.00158498 0.00312851 0.00417943
2154 8 1 14.8787 41.0967 18.1653 0.000781968 0.00297167 0.000677426
2693 10 1 11.2 37.7705 18.8019 0.00262627 -0.00379955 -0.00065387
2576 10 4 22.404 42.5295 20.3844 0.0014573 0.00240295 0.00546014
498 2 2 26.7205 53.179 22.9321 -0.000416953 0.0219888 0.015623
1281 5 1 24.7715 46.1865 13.8012 0.00303368 0.00336985 -0.00558941
1475 6 1 30.8671 44.1146 21.1819 0.00350741 0.00532869 0.00595862
2584 10 3 29.3448 46.6377 17.6403 0.00199418 0.00343707 -0.00102417
2031 8 1 36.672 42.5985 19.3843 0.00741005 0.00629598 -0.00149955
617 3 1 27.9991 43.4483 15.6578 -0.010486 0.00703832 -0.0029553
47 1 1 36.5174 39.0118 15.1791 -0.000960764 -0.00299792 -0.00194849
1591 6 1 31.2166 36.1975 21.1521 -0.00588536 -0.00778381 0.00316994
793 3 2 27.8765 45.2217 12.0717 -0.00493127 0.00101547 -0.00721722
362 2 1 29.6996 40.9128 15.715 -0.00132814 0.000729984 -0.0088345
1828 7 1 38.3768 39.4484 15.8069 -0.00401014 0.0022597 0.000160652
1886 7 1 39.8774 34.978 17.2121 -0.00404449 -0.00535554 0.00155722
2313 9 1 38.2033 42.1836 19.231 0.000917327 0.000762864 -0.0058512
1894 7 1 44.546 38.6082 14.9693 -0.00275532 0.00211312 -0.00023757
139 1 1 51.2499 38.9617 18.8085 0.00401791 0.000977541 -0.00762603
1170 5 1 49.687 44.6299 20.7279 0.0016216 0.00503489 0.00354459
1556 6 1 46.9058 42.0442 21.2219 0.00109068 0.000961922 -0.000290913
1763 7 1 51.0543 36.7864 19.2476 -0.00186036 -8.26799e-05 -0.00286051
346 2 1 47.0298 39.9601 13.1952 -0.000242118 0.000987013 -0.00853228
2201 8 2 1.113 40.1496 23.7542 0.00367071 0.00401194 0.0172027
505 2 2 56.0538 38.6569 19.2423 -0.00166687 0.00828609 0.00984492
1586 6 1 52.0303 38.7301 19.9666 0.00382594 0.0032108 0.00317024
1985 8 1 55.4458 39.1912 16.5614 -0.00305578 0.00361105 0.00302708
2348 9 1 52.9636 39.1669 17.2673 -0.00393494 0.00440713 0.0019292
2088 8 1 59.046 39.6167 17.9419 0 0 0
2158 8 4 59.1242 40.981 21.2774 0 0 0
533 2 2 59.9009 44.6245 19.5338 0 0 0
971 4 3 58.7693 37.9832 22.3454 0 0 0
1621 6 1 0.101115 42.4331 24.9628 0.00216083 -0.00294212 0.0087705
1692 6 2 54.5335 40.1633 14.2166 -0.00269706 -0.0074668 -0.00283842
680 3 4 2.31653 49.591 12.1687 -0.00344461 0.0107698 -0.0085132
1898 7 1 58.632 49.4307 17.5356 -0.00620853 0.00089148 0.00208139
2493 9 2 1.02646 47.4393 20.4181 0 0 0
2333 9 1 2.3898 50.7251 18.4505 0 0 0
457 2 1 0.94647 51.939 18.892 0 0 0
652 3 1 1.17153 45.4897 22.2633 0 0 0
1906 7 3 7.03926 46.911 14.2689 -0.0021129 0.00347536 -0.00290435
1759 7 1 10.4671 50.261 17.3413 -0.00126949 0.002653 0.00296433
1024 4 3 8.71767 47.6777 21.9732 -0.00358046 -0.00988396 0.00445279
2269 9 1 11.8913 44.1874 14.8331 0.00512083 -0.0128306 -0.0110717
2628 10 3 16.2052 53.5868 22.6128 -0.00120318 0.00409488 0.0125227
2578 10 1 17.7158 51.978 20.1681 0.00101698 0.003641 0.00541801
2603 10 1 19.6871 44.6859 16.3726 0.000163709 -0.00227151 -0.000986542
1706 7 1 21.8724 48.9057 12.8843 0.00207535 0.00286379 -0.00786546
938 4 1 18.4422 46.2178 15.4578 -0.0045424 -0.00498017 -0.000564106
806 3 2 20.1465 40.097 18.6776 -0.00345925 -0.0108114 -0.00780454
161 1 1 29.3848 52.0509 22.7205 -0.000488623 0.00356739 0.00524015
795 3 2 22.8159 59.3419 10.3233 -0.00332221 0.0168593 -0.0142791
1922 7 2 34.4282 39.4645 32.5896 0.000678322 -0.0114819 0.0234484
1854 7 4 30.8929 46.9782 15.1094 -0.00689347 0.00391917 -0.00145393
1608 6 1 34.3447 47.3202 24.2151 -0.00141673 0.00140262 0.00661541
390 2 1 33.7629 53.4835 14.2625 -0.0029099 0.00442074 -0.0017537
931 4 1 34.1699 44.0917 15.8837 0.00829548 -0.00861121 -0.00614602
1112 4 2 29.7402 41.6767 22.0562 -0.00411953 -0.0132473 0.000161903
2036 8 1 35.4166 49.8728 23.4947 0.00205646 -0.00270862 0.00551827
2237 8 2 35.7567 52.984 17.1724 -0.00261426 0.0022846 -0.00916926
2736 10 1 37.7891 49.3352 23.4977 -0.00399158 0.00543044 0.00397063
263 1 2 51.3477 53.3804 10.8086 -0.00644336 0.022577 -0.00609134
991 4 1 39.8108 48.7938 16.3248 0.000866085 0.00079298 -0.00122622
1468 6 1 39.6704 46.1906 20.0584 -0.00202058 -0.000354272 -0.000712017
1299 5 4 38.4792 46.0384 14.0734 -0.00232889 -0.00190833 -0.00337758
284 2 1 41.1135 48.0588 23.1422 0.00047135 -0.00261492 0.00343292
2370 9 1 43.5813 51.1856 20.9389 0.00701913 -0.00185372 0.00114998
1707 7 3 46.0296 46.8115 19.0656 0.00169306 -0.00424115 0.00486686
1957 7 2 53.7155 49.4905 17.8196 0.0155357 -0.00411008 0.000123378
1708 7 4 53.0207 47.4905 19.8748 0.00160668 0.000653829 -0.00425659
897 4 1 49.641 51.0286 20.4382 -0.00185997 -0.00176941 0.000166243
2272 9 4 50.9146 46.2157 20.1666 -0.000733425 -0.00138582 0.00243123
725 3 1 46.3749 48.9208 18.2673 -0.00092701 0.00187297 -0.00170919
1569 6 1 50.2959 49.0679 22.4171 0.00165479 -0.00359581 0.00591631
33 1 1 51.591 47.7059 22.7262 -0.00219288 -0.00211785 0.00453301
555 2 2 57.9661 51.5155 22.0449 0.0303217 -0.00408002 0.0138286
2814 10 2 53.942 51.4342 13.4873 0.00735499 0.00592166 -0.00704447
1988 8 1 56.2098 46.8668 15.7222 -0.00674421 0.00282676 -0.00574021
1944 7 2 0.915534 47.6435 7.04749 0.00994843 -0.00896171 -0.0232852
2611 10 1 53.522 47.6912 14.4942 0.00231196 0.00104841 -0.000998642
2394 9 4 56.9626 46.1152 17.0579 0.0044612 -0.00271287 0.00131603
2689 10 1 58.3509 47.0591 19.7983 0 0 0
843 3 2 5.07182 2.74064 11.4735 -0.00588262 0.051288 0.00400826
2659 10 1 13.1307 56.9752 16.7784 0.00810882 -1.44648e-05 -0.0103415
2123 8 4 10.683 54.0281 20.0848 -8.1796e-05 -0.00213989 -4.89204e-05
865 4 1 9.45634 52.9888 17.3509 0.00187141 -0.000399977 3.01742e-05
2249 8 2 17.8374 51.302 20.1317 0.0170642 -0.0139865 -0.00405369
1994 8 1 20.045 59.4877 20.0414 0.0013018 0.00909407 0.00638764
983 4 1 19.1075 52.7542 24.7127 0.00420272 -0.00118066 0.00506101
2752 10 3 22.8165 58.0103 17.9533 0.00185426 -0.0010174 0.00182449
2329 9 1 19.8865 54.8199 23.2615 0.00306414 0.000668895 0.00538137
1489 6 1 18.6398 59.6791 15.2949 -0.00179322 0.00203231 -0.00179491
2058 8 1 12.7423 54.2642 14.5604 -0.0077069 -0.00115309 -0.00263565
477 2 1 31.4969 59.7041 17.9563 0.00504498 0.00840015 0.00392313
2408 9 1 25.1788 51.8102 19.4202 0.000487479 -0.00413658 -0.000458982
2719 10 1 28.8215 57.9554 18.6977 0.00187935 -0.000979062 0.000986268
179 1 1 23.1052 57.441 14.7932 -0.00461237 -0.000708485 -0.00126502
1044 4 1 23.2977 57.8868 12.6725 -0.00193283 0.00112278 -0.00690555
2485 9 2 27.8481 51.9589 17.8902 -0.000384293 -0.0114658 -0.00653968
433 2 1 31.9463 47.0659 20.0596 -0.00133497 -0.0161455 -0.00141764
22 1 1 33.6003 57.5098 12.8869 -0.00307527 -0.00203145 -0.00604035
1676 6 2 31.2286 59.5512 9.40647 -0.00531849 0.00717112 -0.0156342
2691 10 1 44.0488 56.3583 14.5705 0.00321678 0.00516943 -0.00653855
1443 6 1 39.7907 59.3546 17.3078 -0.00397096 0.00111895 -0.00111793
2063 8 1 36.7335 58.0994 18.7981 -0.00595139 0.00352099 -0.00316668
1141 5 1 44.9024 1.1668 14.4834 0.0104178 0.00249042 -0.0109762
1212 5 1 38.6961 59.8883 21.0514 -0.00251299 0.000232384 -0.001995
1434 6 3 47.0581 56.4904 20.0981 0.00114921 -0.00443016 0.000612409
398 2 4 50.5258 58.4023 22.5099 0.00196098 -0.00269517 0.00347069
544 2 2 56.7448 56.517 17.2784 0.011208 -0.00197303 -0.0131355
317 2 1 55.6555 58.6643 19.8107 -0.00142787 0.00156664 -5.1058e-06
2376 9 1 54.4406 58.5572 19.5701 -0.00283541 -0.00252623 0.000961944
2104 8 1 52.0345 53.735 19.8364 -0.00361501 0.000286929 0.00448127
2755 10 1 53.9881 57.1034 22.9204 0.00627753 0.00318967 0.00552712
1784 7 1 52.5825 57.3425 16.5134 0.00201416 -0.00182194 -0.0012036
2074 8 1 1.24904 55.6662 18.2383 0.00460143 -0.0014304 0.00190815
2581 10 1 59.7319 57.4576 16.6179 0 0 0
786 3 2 57.2994 59.1852 20.0654 0 0 0
1519 6 1 57.7415 57.7043 17.2876 0 0 0
1066 4 1 53.5662 57.818 20.2062 -0.00114039 0.000157223 -0.00202897
627 3 1 0.265009 5.87657 27.1366 0 0 0
2353 9 1 0.818609 3.09488 25.722 0 0 0
1279 5 1 4.91137 1.89974 25.4971 -0.000256783 0.00395827 -0.00547626
1253 5 3 3.5587 7.65166 24.4192 0.00177911 -0.000773253 -0.00298689
89 1 1 6.70632 5.39224 29.5748 0.000199166 0.0111217 -0.00233434
243 1 2 55.0406 11.671 33.0734 0.00792096 0.0270102 -0.0115456
1694 7 1 1.97854 5.47357 24.3738 0.00307174 -0.00364664 -0.00116492
2704 10 1 2.62618 3.65632 24.9708 0.00294552 0.00410559 -0.00637425
2187 8 4 14.2056 3.18778 21.3321 5.26264e-06 -0.00835162 -0.00439049
2306 9 4 11.7513 3.14324 29.3648 0.00182105 0.00541082 0.00494668
503 2 1 16.1502 8.08435 30.9528 0.00670642 0.0112864 0.00334385
1842 7 1 15.2267 2.57688 27.1297 0.00126654 0.00504481 -0.00179193
140 1 4 14.0425 8.16115 24.5885 -0.00215665 0.00521212 0.00427835
2261 9 1 19.2803 1.4695 28.7333 -0.000137872 -0.00524525 0.00651823
986 4 4 20.0527 8.7852 25.2901 -0.00161443 0.00840732 -0.000280389
916 4 1 20.4355 1.1379 28.7548 0.00925752 0.000461993 -0.00129332
1385 5 2 29.511 9.64216 25.2575 0.0218908 0.0084696 -0.00539774
1093 4 2 14.2469 14.5073 22.4242 -0.00292831 0.0162451 -0.0130791
1730 7 4 27.4467 1.29345 23.9414 -0.000495232 -0.00321555 -0.00169986
2055 8 3 24.7983 2.50828 29.492 -0.00427977 -0.00029708 0.00161973
1596 6 1 24.0678 3.27442 26.5514 -0.00806284 -0.0029588 -0.00077043
639 3 1 31.0694 0.535832 26.1147 0.00979665 -0.00904399 -0.00146674
77 1 1 32.723 10.2659 27.4727 -0.00511023 0.00798983 -0.00198809
39 1 4 34.5352 2.97489 25.8339 0.00582442 0.004226 0.000199507
1642 6 2 38.6895 51.7467 33.5377 0.000968946 -0.0289255 0.0195342
1003 4 1 42.8292 3.21564 25.3367 -0.00206015 0.000613042 -0.00420727
480 2 1 40.0901 59.4516 24.5154 -0.00622327 -0.00702397 -0.0039192
567 3 1 41.1105 0.697647 24.201 -0.0023359 -0.00110497 -0.00763233
2242 8 2 31.0375 5.63229 23.8861 -0.0135651 -0.000839008 -0.0120192
2819 10 2 51.7077 58.89 7.79774 0.00814928 0.0171676 -0.00468377
37 1 3 52.3807 1.03814 24.8268 0.00398484 0.000793738 -0.00154262
2116 8 1 45.6536 6.28071 23.4556 -0.00343026 0.000768181 -0.00283453
2275 9 1 52.3136 1.45353 25.5664 0.00555339 -0.000440281 -0.000508335
1587 6 1 49.9007 58.6034 26.0422 -0.00112939 -0.00520321 -0.00210647
2664 10 4 51.7127 2.31732 26.3362 -0.000611047 0.00757704 -0.00725469
170 1 4 47.2736 2.49429 25.5432 -0.00209637 0.00308733 -0.00250471
821 3 2 0.193306 6.59163 33.5384 0.00194945 0.00686827 0.0133427
1953 7 2 56.7556 6.80599 29.5746 -0.00168861 0.00385438 -0.0119624
2805 10 2 52.5429 2.7658 31.8826 0.0115548 -0.0182801 -0.000514426
2706 10 1 52.8944 3.70855 25.763 -0.00335066 0.00598748 0.00415425
553 2 2 58.1971 4.98677 26.982 0 0 0
2675 10 1 54.3593 3.65842 27.8456 0.00584828 -0.00355257 0.00383404
1838 7 1 55.9398 4.56055 29.2054 -0.00525521 -0.00373565 -0.00194155
265 1 2 54.9614 5.62926 21.462 -0.0148402 0.00800204 -0.0089596
2115 8 1 0.312643 12.4657 24.6361 0 0 0
2606 10 3 1.43198 10.293 23.435 0 0 0
623 3 3 58.2585 10.5826 25.4003 -0.00532379 -0.00181098 -0.00434285
1834 7 1 12.9652 10.6941 25.3286 -0.000734682 -0.00158099 0.00461356
946 4 1 11.2851 7.9372 27.7164 0.00234197 -0.00492231 0.000835144
625 3 4 12.0777 13.3993 26.213 -0.00426733 -0.00070047 -0.000458001
136 1 1 14.5187 8.33043 25.9421 -0.00642326 0.00088607 0.00691097
2751 10 4 19.1189 11.6599 23.0987 0.00215792 -0.0011922 0.000831366
218 1 1 25.79 11.9927 26.8414 0.00782733 -0.00362046 0.00550738
1528 6 4 17.6879 11.0142 20.5908 -0.00311611 -0.00319448 -0.00656762
739 3 1 21.1319 11.0754 22.4864 -0.00195041 -0.000966762 -0.00155876
889 4 1 19.4464 12.5514 25.8684 -0.00564479 0.000543411 -0.00222012
2424 9 1 15.4759 11.8073 27.7105 -0.00972302 0.00150617 0.000144381
1657 6 2 33.6404 11.3108 33.2335 0.0160624 -0.00610484 0.021876
834 3 2 26.2583 11.2253 28.9771 0.00591565 0.00150628 0.00931157
2665 10 4 25.6268 13.6561 26.4705 0.000651077 -0.000330093 0.00143335
1804 7 3 23.905 13.0039 27.2561 0.000178096 -0.00021791 -0.000236691
1520 6 1 23.6778 16.7122 27.8382 -0.00264082 0.00359562 -0.000148085
1896 7 4 26.4352 4.93761 27.9401 0.000609918 -0.00800954 6.00126e-05
2244 8 2 23.1662 22.732 18.1927 -0.0133069 0.0217714 -0.0141141
1604 6 1 33.8498 15.0613 26.5255 0.00716536 0.000982207 0.00250653
2716 10 3 31.614 6.79586 30.6936 -0.00324376 -0.00257711 0.0037828
2127 8 1 41.5235 12.4073 23.8825 0.0105754 0.0021511 -0.0109077
1131 5 1 30.0339 10.649 29.6094 -0.00902008 -0.00484242 -0.000407732
829 3 2 38.2503 17.7379 26.5935 -0.000433473 0.0115189 -0.000555955
1782 7 3 40.4752 9.42671 24.5231 0.005382 0.000440135 -0.00400728
2563 10 1 42.8529 14.7148 28.6586 0.00347859 0.00543728 0.000806759
868 4 1 47.487 8.68054 31.3279 0.00792385 -0.00405219 0.00418654
1287 5 1 43.652 17.0377 27.2004 0.00617715 0.00597866 -0.00155981
308 2 1 36.1401 15.3563 23.4942 -0.00517899 0.00327695 -0.000565973
1897 7 4 48.2864 9.78346 24.6832 -0.00147966 0.00168827 -0.000543227
1463 6 1 47.3146 7.32123 24.4341 0.00208126 -0.00307098 3.51062e-05
2722 10 4 49.8792 7.02814 25.0958 -0.00141847 -0.00363724 0.000674405
200 1 3 51.7406 13.2099 22.513 -0.00487449 0.00337515 0.000476231
172 1 1 49.6526 13.391 29.5936 -0.00329593 0.000257789 0.00290058
133 1 1 49.8755 12.2142 23.3572 -0.00429248 -0.000244724 -0.00374203
1726 7 1 46.8691 11.0212 27.4421 -0.00326888 0.00339516 -0.00209503
590 3 1 43.9308 10.0042 19.4919 -0.00427682 -0.0016139 -0.00723377
1873 7 1 49.3292 13.189 26.4651 -0.0033783 -0.00370145 -0.0016219
148 1 4 47.8374 12.3392 23.8444 -0.000893939 -0.00527683 -0.00165782
2218 8 2 50.4433 7.05192 22.8091 0.00243693 -0.0131915 -0.0119666
2270 9 1 52.0345 7.34576 27.7003 -0.00342302 -0.00433904 -0.00214471
2580 10 1 56.4642 8.24405 28.4043 0.00243611 -0.000493156 0.00816234
2132 8 1 54.3347 11.5857 25.735 0.00513242 0.00229811 -0.000251598
1513 6 3 59.7035 9.77631 24.7642 0.00306086 -0.00269815 -0.00161905
534 2 2 58.4041 7.75726 26.8592 0 0 0
235 1 2 57.6062 12.0366 24.0829 0 0 0
647 3 4 59.8848 10.4813 25.6101 0.00354492 -0.00274259 -0.00121733
216 1 2 53.7424 11.8938 30.8833 0.000951448 -0.00299952 0.00494686
698 3 3 4.49124 17.0555 24.4803 0.00642405 0.00361791 0.00953896
2066 8 1 2.43359 20.1375 29.0739 0 0 0
2608 10 1 0.0472505 20.9864 22.8536 0 0 0
2256 8 2 2.27825 18.5443 25.8712 0 0 0
1353 5 2 0.238048 21.5039 25.4909 0 0 0
2389 9 1 4.82517 18.7504 29.5204 0.0052497 0.0110842 0.00274188
2787 10 2 7.00981 17.7156 24.7735 -0.00461645 0.00126397 -0.00521398
1732 7 1 13.1774 18.8103 27.757 0.00219913 0.0021961 0.000888938
2610 10 4 12.031 19.1095 25.8661 -0.000846995 0.00100655 1.451e-05
1099 4 2 6.30171 17.7112 17.5005 0.011566 0.00122821 -0.022342
2285 9 1 21.0232 22.379 29.7266 -0.000846282 0.0036784 0.0124015
1335 5 1 19.3405 18.0689 28.465 0.00446024 -0.00388155 -2.01579e-05
677 3 1 27.5951 19.3276 27.8986 -0.00248929 0.00524686 0.00953566
2766 10 2 23.7076 18.2325 38.5595 0.00160456 -0.000408047 0.0200201
1535 6 3 23.2017 24.4825 34.7305 -0.00230463 0.00466585 0.0131234
2648 10 1 22.6865 18.2603 27.9015 -0.00035065 0.00622383 0.00186045
2365 9 1 32.9368 23.1323 29.7903 0.00765408 0.00441188 0.00244249
928 4 4 27.5075 15.1674 23.2327 -0.000711652 -0.00201716 -0.00142753
1500 6 3 29.4116 19.7314 29.4381 0.00326717 0.000243929 -0.000663942
1502 6 1 27.0708 17.6176 23.3022 -0.00158862 -0.00249474 -0.00702398
980 4 3 36.8895 14.2963 21.0765 0.00656391 -0.00272084 -0.00307113
1905 7 4 32.6095 15.7061 26.8394 0.000852551 -0.000687392 0.000325044
391 2 1 30.0949 17.4817 30.433 -0.00468639 -0.00451645 0.00113
605 3 1 32.5981 18.629 23.2496 -0.0030398 -0.000249228 -0.00562843
1250 5 1 35.9665 21.441 24.2876 -0.00382324 0.00686987 -0.000124196
853 4 1 42.4019 19.5422 28.5551 -0.000263911 0.00279672 -0.000225293
215 1 4 40.229 21.4666 23.4667 0.0014256 0.000878162 -0.00308003
1277 5 4 42.3616 15.7554 28.4127 0.000767059 -0.00323086 -0.000699031
79 1 1 40.9194 13.8641 22.8034 -0.00387321 -0.00595003 -0.00277718
2351 9 1 43.89 19.7391 23.9784 0.0030753 -0.00231059 -0.00468946
190 1 1 43.4421 21.2536 26.3724 -0.0030546 0.00480874 -0.00257676
689 3 3 42.4418 16.4208 22.034 -0.000885916 -0.00667162 -0.002625
154 1 1 40.7114 19.8887 23.242 0.00039544 8.94674e-05 -0.0069541
1710 7 1 45.815 14.7033 28.6091 0.0016631 -0.00154407 0.00571071
1142 5 1 44.9335 22.4359 29.233 -0.00125363 0.00177927 0.00484205
1515 6 4 47.9144 16.525 29.0622 -0.000904087 -0.00304908 -0.000540433
2336 9 1 50.3673 22.0608 28.6144 -0.000795851 0.00185069 0.00404421
1282 5 1 47.9135 23.2098 19.179 0.00160545 0.00381838 -0.0073979
942 4 4 44.041 21.8819 26.6129 -0.00252592 0.000456379 -0.00491993
236 1 2 50.3292 18.9197 25.3952 -0.0203153 -0.00250942 -0.00138628
2586 10 1 58.5571 16.8788 25.5412 0 0 0
2117 8 1 59.828 19.6821 29.8773 0 0 0
783 3 1 55.9131 16.5445 26.0489 -0.00526074 0.000506378 -6.43904e-05
1645 6 2 59.3971 16.8619 28.4504 0 0 0
1032 4 1 4.7142 23.8899 25.8325 0.00174374 0.00215508 0.00163578
2554 10 4 1.65902 25.232 26.0868 0 0 0
1224 5 4 2.82535 21.8042 27.5896 -0.00184377 -0.000813987 0.0024357
1058 4 1 6.92242 31.0331 25.1691 0.00229509 0.000248278 -0.00299436
2129 8 1 2.74706 25.099 26.6045 0.00404331 0.00110684 0.00331761
604 3 1 17.1744 22.0536 28.9552 0.00863935 -0.00338893 0.0126791
2033 8 3 14.9681 26.0634 26.9418 0.000132612 -0.00513326 0.00579748
2363 9 1 9.13629 28.3769 23.5603 -8.24714e-05 0.00404569 0.000969629
1809 7 1 11.5721 27.8387 31.4172 0.00103237 0.000103252 0.00613367
2325 9 1 21.378 26.9218 24.4446 0.0021154 0.00066361 0.00263311
2251 8 2 16.7275 27.5257 34.9031 -0.0101445 0.00430998 0.0131934
2193 8 1 17.336 23.2105 24.8755 0.000316295 -0.00674995 0.00188335
232 1 2 42.4722 29.5181 26.7895 0.036686 0.0127172 0.00298706
2591 10 1 25.0708 31.9956 25.5687 0.00441209 0.0136414 -0.0010196
88 1 1 25.2411 26.1611 27.1253 0.00306613 0.00314408 0.00419269
291 2 1 26.3267 20.5225 32.5095 0.00493824 -0.00654236 0.00760171
1575 6 1 21.2439 25.5286 28.5937 -0.00438369 -0.00185425 0.000806502
1051 4 4 19.2961 23.5098 27.2965 -0.00693014 -0.00406853 -0.00212583
1381 5 2 20.2502 31.9478 29.3977 -0.0121226 0.00759803 0.00685947
1581 6 4 25.8222 26.7447 26.1142 -0.00101478 0.00616967 -0.00527098
1959 7 2 40.192 28.3919 22.2653 0.00800172 0.00309379 -0.00499949
1295 5 1 40.9968 29.64 18.5958 0.00742706 0.00263327 -0.00965868
117 1 1 33.5373 28.5534 25.8079 0.00498714 -0.00258364 -0.00423366
901 4 1 33.2962 22.2692 30.4986 0.000784718 -0.00825458 0.00538136
1637 6 2 42.537 32.3546 19.9495 0.0114034 0.0165705 -0.016307
1952 7 2 39.2337 34.3879 26.514 0.0106668 0.0104773 -0.00561715
2779 10 2 40.4767 40.9189 30.6848 0.00175197 0.0271057 0.00662778
540 2 2 40.6079 30.8372 34.06 0.000361693 0.00644472 0.0113246
2650 10 3 41.01 26.7746 24.2208 0.001654 0.00090816 0.00154608
2349 9 1 38.3364 24.2072 31.1385 -0.00266924 -0.00290072 0.00621224
1862 7 4 36.7285 26.3348 25.4496 -0.00470628 0.000484621 0.00179445
2476 9 1 41.941 29.0594 26.7644 0.0025846 0.00328194 0.000584537
1999 8 1 44.476 25.0286 20.3553 0.0038171 -0.000242744 -0.00600737
481 2 1 45.3982 23.2868 26.2357 0.00127862 -0.00542972 -0.00125883
1665 6 2 37.3896 27.963 22.0589 -0.0106527 0.00474018 -0.0086515
958 4 3 44.0823 24.4678 23.9224 -0.00100836 -0.00211163 -0.0064131
2157 8 1 50.3146 21.8078 27.1693 -0.00384082 -0.00312524 0.0037724
645 3 3 44.3882 27.3445 22.8323 -0.00622274 0.000545634 -0.00108558
2012 8 4 52.0217 24.7322 27.1575 -0.00197796 0.00168135 0.00254549
318 2 1 56.3731 24.8008 25.3596 0.00248147 0.00643851 -0.00429879
1678 6 2 53.9573 26.0784 24.6315 -0.015984 0.00990908 -0.00047293
1086 4 2 59.7354 24.3241 26.5925 0.00877945 0.000778469 0.000584016
1579 6 3 55.1717 28.6485 27.9225 0.0037418 -0.00428941 -0.00010747
1571 6 1 54.3064 23.8854 28.0526 -0.000382733 -0.00291126 0.00730081
1572 6 4 58.9368 25.5521 22.5177 0 0 0
2025 8 1 56.6622 23.7988 26.1157 0.00262757 -0.00633922 -0.00625136
319 2 3 57.6402 27.4331 24.2682 0 0 0
332 2 4 59.9691 27.7426 26.9625 0 0 0
2442 9 1 58.9559 25.9872 29.6479 0 0 0
992 4 1 57.7066 28.5115 22.9142 0.00253207 -0.00195829 -0.00195275
1649 6 2 54.8007 23.7685 24.4872 0.0059312 0.000270922 -0.00235577
2483 9 2 1.23716 28.4895 23.4314 -0.013594 -0.0165138 0.00808413
1602 6 4 0.548567 35.0457 23.1946 0 0 0
1868 7 1 1.74182 36.2963 24.8236 0 0 0
2387 9 1 0.724449 34.854 24.5218 0 0 0
523 2 2 9.87343 33.9458 30.7601 0.00999135 0.0183551 -0.0133459
1037 4 3 13.1704 32.6884 28.8151 0.0109188 0.00293893 0.0103758
415 2 1 7.88849 36.3469 30.9309 0.00444783 -0.00836371 -0.00349206
186 1 1 14.5962 32.3973 29.9324 0.0136165 -0.00509346 0.00292912
1625 6 4 14.1562 35.7935 21.4945 0.00773082 -0.00212683 -0.00424612
1100 4 2 11.3139 38.0895 16.1683 0.00161485 0.00788024 -0.0239338
1811 7 1 15.3224 31.4747 24.781 -0.00996076 0.00156184 -0.00151534
67 1 1 18.1627 39.4603 27.8282 -0.00274143 0.00809243 0.00519052
1546 6 1 14.1118 34.6781 32.6077 -0.00261272 -2.64863e-05 0.00693327
2337 9 3 18.8079 31.9068 25.2213 0.000110087 -0.000506721 0.00124213
74 1 4 15.6033 33.4189 24.8624 -0.00481323 -0.00440767 0.000220983
2080 8 1 21.0462 33.7616 25.6719 -0.000512677 0.00708646 -0.00452321
2216 8 2 15.4236 27.4803 26.1329 -0.0192723 -0.00671032 0.00524755
1237 5 1 22.8993 33.7798 20.9298 -0.00305737 0.00503918 -0.00749182
1597 6 1 27.6075 33.3672 35.126 0.00869496 0.000677153 0.0107839
2030 8 1 33.7873 33.5425 28.8447 0.0122845 0.0032749 -0.000715561
500 2 1 27.5511 37.1399 27.6344 -0.000898988 0.00221619 0.00376544
2048 8 4 27.5371 34.8304 29.0366 0.00442874 0.00165279 0.00252269
620 3 1 26.4089 37.8838 23.0299 0.0025856 0.00228477 -0.00194477
1982 8 4 29.3372 41.0123 20.679 0.00169872 0.00732763 -0.0048159
1308 5 1 27.1409 28.7626 26.7319 -0.0042107 -0.00274507 -2.32106e-05
2443 9 1 27.8187 35.0608 29.5192 0.00286939 -0.000132946 -0.00054083
2538 9 2 38.4856 32.2561 39.0619 0.00225776 0.00359431 0.0319204
472 2 1 35.1916 38.1651 23.8423 0.00533369 0.00140983 -0.00181433
1585 6 1 31.8854 30.8534 29.0279 -0.0025819 0.000676937 0.000736984
944 4 1 33.7586 30.2207 32.033 -0.00241844 -0.00121098 0.00429033
2065 8 1 34.1304 27.8227 29.3622 0.000661239 -0.00520823 0.00122342
499 2 1 32.6489 31.2196 26.84 -0.00334514 0.00039287 -0.00264373
752 3 1 47.7459 34.9674 30.8779 0.0126643 0.00272942 0.00966099
2171 8 1 39.9541 31.8426 24.0787 0.00308901 -0.00475824 -0.00427843
823 3 2 36.3004 31.2962 16.6823 -0.00563534 -0.00763825 -0.0127552
1122 4 2 50.9976 36.9697 38.0898 0.00851989 0.00715841 0.0223666
444 2 4 49.6787 39.3012 28.2108 0.000439369 0.00725952 0.00574058
1465 6 1 51.3271 37.0695 24.3013 -0.00123878 -0.000496805 0.00434365
1280 5 1 48.4772 30.8097 27.3363 0.00153902 -0.00140453 -0.000645574
2715 10 1 46.562 31.4614 27.1739 -0.00292397 -0.00506249 0.00214031
1438 6 4 45.3424 35.5947 25.8567 -0.00129473 -0.00131264 -0.000917823
365 2 4 51.223 33.9091 25.8951 -0.00577462 -0.00161711 -0.00235724
1781 7 1 52.4592 36.3031 26.6619 0.00321182 0.00270135 0.00160615
1223 5 1 46.1854 31.916 26.008 -0.00254401 -0.000828973 -0.00638244
417 2 1 48.6591 32.4188 25.3263 -0.00118347 -0.00540336 -0.00496684
1309 5 1 56.5107 39.0105 26.75 -0.00850317 -0.00201319 -0.00564923
1892 7 3 54.6382 33.168 28.917 -0.00131196 0.00238976 -0.00381977
158 1 1 58.8644 30.8717 26.9557 0 0 0
1802 7 1 59.3483 35.4149 26.8236 0 0 0
1609 6 1 52.7325 36.3312 29.708 0.000164737 0.00124766 0.00459109
1687 6 2 53.2892 31.1596 27.98 0.012132 -0.000196758 -0.00039985
2763 10 2 59.0745 39.8882 34.211 -0.0114153 -0.0057866 0.018627
1453 6 1 5.08099 43.2983 24.1932 0.0136127 0.00245016 0.00531951
2421 9 1 4.07064 39.6951 29.9531 0.00322039 -0.00139892 -0.00546338
2799 10 2 0.991789 41.2592 24.1397 0 0 0
1517 6 1 2.32364 42.7604 28.4526 -0.00500372 0.00123448 -0.00183521
559 2 2 14.2298 33.2529 29.9405 0.00503857 -0.0105968 0.00736486
2085 8 1 15.1361 39.4226 27.9635 0.00156586 0.000387984 0.00305175
2678 10 4 13.674 42.6932 29.4177 -7.8099e-05 0.00303642 0.00147917
44 1 1 7.69891 43.3197 29.4723 -0.00506381 0.00454549 0.00447485
1568 6 1 18.4377 48.2088 29.3125 -0.00146243 0.00811568 0.00666365
1695 7 1 20.8557 35.734 30.246 0.00550202 -0.00615019 0.005653
2415 9 1 21.4135 39.4978 30.6583 0.00530763 0.000519316 0.00197188
2449 9 4 24.7556 41.0068 25.0204 0.00523337 -0.000750954 -0.00189816
1266 5 4 17.2127 43.8366 22.9018 -0.00240363 -9.74351e-05 -0.00116782
296 2 1 15.4264 37.5307 24.2626 -0.00258816 -0.00370993 -0.00190914
1799 7 1 37.8708 37.9311 25.4724 0.00419712 -0.00534758 0.00602017
2094 8 1 38.6744 37.1839 26.1608 0.00740007 -0.00199356 0.000753332
1733 7 1 36.2911 39.0597 22.2433 0.000691108 0.000429468 -0.00213527
1161 5 1 31.3533 38.5032 24.7511 -0.00377526 -0.00202802 0.000670209
594 3 4 33.8927 40.9418 28.7313 -0.00195413 0.00297868 -0.00122757
335 2 1 33.6975 42.2951 28.6426 -0.00205885 -0.00447619 0.00499276
1194 5 1 34.1127 41.4823 22.2334 2.57723e-05 -0.00620517 -0.00189306
1916 7 2 25.4995 40.8256 23.5423 -0.0144721 -0.00750951 -0.0121307
1993 8 1 44.2493 40.704 24.2205 -0.0012951 0.00417526 0.00123683
1041 4 1 42.7369 38.8166 30.3375 0.00734658 -0.00125585 0.00160286
182 1 4 38.28 39.3037 22.5595 0.000877598 -0.00385143 -0.00142035
90 1 3 38.6977 41.8102 25.1106 -0.00252941 -0.001792 0.00168826
1705 7 1 44.9258 39.1495 27.4259 0.00147908 0.00105775 -0.000237706
2364 9 1 38.4086 38.7106 25.8144 -0.00232935 -0.0033718 0.000667974
1406 5 2 44.6349 38.6692 27.4894 -0.00335636 -0.0103293 0.0057706
1455 6 1 46.6194 43.2734 33.5903 0.00196894 0.000476744 0.00743683
1650 6 2 46.5233 44.2228 27.6646 -0.0137875 -0.00599974 0.00357513
1048 4 1 48.5998 45.4487 24.4017 0.000335976 0.00562697 0.000243766
934 4 1 46.4005 37.8676 21.9153 -0.00265659 0.00012601 -0.00326379
2574 10 1 50.4258 43.9487 24.9625 -0.00438559 0.0042651 0.00163052
1484 6 4 50.2385 43.2924 26.1629 -0.00423045 0.00129599 -0.00273183
1550 6 4 51.065 37.7554 23.2569 -0.000716721 -0.00176808 -0.00159927
2404 9 4 49.6732 38.7437 25.854 0.00303742 -0.00558993 0.000440998
2047 8 1 46.386 44.2478 27.9332 -0.00458131 0.00668995 -0.00201177
703 3 1 49.2322 37.5579 19.1616 -0.000165483 -0.00444601 -0.00813094
2271 9 3 50.0521 41.8818 24.4878 -0.00554122 -0.00209144 -0.00237529
1391 5 2 55.5474 39.1476 25.054 -0.00155565 -0.00422354 -0.01135
2444 9 1 56.7 37.5183 25.1543 -0.00101992 -0.000249652 0.00203437
1128 4 2 59.1697 43.4389 28.4667 0.00937405 -0.0121058 0.0039956
2390 9 3 54.0972 40.0471 25.863 -0.00118229 0.00184089 -0.00489045
234 1 2 57.3732 40.9243 26.4219 0 0 0
1219 5 1 56.0598 43.3971 27.0881 0.00342236 -0.0018189 0.00173979
1628 6 1 0.0442967 51.6694 24.7745 0 0 0
1124 4 2 2.87036 45.0598 27.4099 0 0 0
1092 4 2 0.428314 51.0748 28.5847 0 0 0
1951 7 2 56.532 55.4893 24.3929 -0.0167671 0.013968 -0.0157312
229 1 2 57.2702 45.8317 35.5159 -0.0215565 -0.00390524 0.0165225
2295 9 4 8.41069 44.3377 21.3219 0.00546503 0.00956179 -0.00733568
909 4 1 9.54368 49.8243 26.3465 0.00459867 -0.0013988 -0.000792438
304 2 1 12.5516 46.624 32.1194 0.00435056 0.000733522 0.00691508
743 3 1 13.1267 47.6969 26.2714 -0.00288513 -0.00322821 -0.00144186
2228 8 2 16.9976 44.6937 35.5067 -0.00683557 -0.0155763 0.0135318
1310 5 4 22.3519 49.8963 31.8287 0.00973665 0.00943513 0.00520905
375 2 1 19.729 48.741 31.4862 -0.0017646 0.0016005 0.00409462
1285 5 1 14.6382 50.7521 28.2039 -0.00756647 0.000525448 -0.000585228
519 2 2 16.4607 50.6249 30.8711 -0.00794264 0.00364557 0.00772131
2517 9 2 19.2604 42.7034 21.9638 0.00687129 -0.0151167 -0.00284153
1671 6 2 23.5876 1.42417 26.3547 -0.000947243 0.0209804 0.00619727
1796 7 4 24.0679 48.7049 24.6291 0.00290391 0.00743719 -0.00315289
2612 10 4 24.6901 48.2049 28.0522 0.00057381 0.00415959 0.000586021
978 4 1 29.0907 48.45 23.7558 -0.000988833 0.006683 -0.000369823
867 4 1 24.999 47.9755 19.4773 0.00499116 -0.000126915 -0.00942057
2374 9 4 26.0074 49.48 21.2511 0.00136984 4.90978e-05 -0.00555549
2708 10 4 34.62 48.5522 24.3512 -0.0033984 0.000553659 0.00267804
1059 4 4 32.2291 48.9131 23.8166 -0.00169289 0.00605391 -0.00031454
2086 8 3 28.6648 45.3098 27.5511 -0.00434242 -0.00175009 0.00440367
2045 8 1 32.1392 48.7666 25.2889 -0.00475707 -0.000107967 0.00189534
17 1 4 36.767 48.2682 28.7128 0.00460346 -0.00264836 0.000949507
1138 5 1 33.8224 45.1967 22.3673 -0.00135766 -0.00115403 -0.00143287
1721 7 1 30.8002 50.7623 28.7127 -0.00333918 0.000692152 0.00106953
1981 8 1 40.382 44.2354 24.4907 0.002908 -0.00445096 0.00138037
2446 9 1 42.3042 55.9022 25.3824 0.00276932 0.00729982 -0.000697165
175 1 1 41.7063 48.0931 24.2889 0.00133683 -0.00301839 -0.000979707
754 3 1 40.0338 48.3006 24.9719 -0.000195523 -0.00298664 -0.00208701
370 2 1 36.7059 47.4977 27.1257 -0.00279109 0.00139416 -0.00195152
1792 7 1 50.792 49.1311 32.2111 -0.000591705 0.000716441 0.0111879
452 2 4 49.8899 47.9564 22.9519 0.00103659 0.00200444 -0.000387007
960 4 1 49.4845 52.3814 23.0783 0.000237253 0.00120664 -0.000750266
1264 5 1 49.4772 52.0153 25.8287 0.000930118 0.00039993 -0.000894029
1007 4 1 50.3039 45.9721 30.4818 -0.000536155 -0.00127843 0.0011556
1036 4 1 52.4472 50.2042 21.9045 -0.000245943 0.0013495 -0.00248986
1629 6 1 52.751 52.6065 22.9798 0.00101169 0.00426712 0.0014163
996 4 1 52.4287 48.9125 25.3151 -0.00105574 0.000359181 -0.0017141
1022 4 1 48.4606 49.6126 23.9171 0.00178536 -0.00568294 -0.00543659
141 1 1 47.7321 50.4433 27.3488 -0.00144664 -0.00210657 -0.00202737
945 4 1 44.4582 50.0719 27.8062 -0.00220259 -0.00176714 -0.00287028
847 4 3 0.774374 47.0262 28.4281 0.00348355 0.00025978 0.00507568
2131 8 1 52.1213 52.9112 28.2822 0.00188359 0.00224684 -0.00147826
1360 5 2 58.8732 48.5061 20.6915 0.00943418 -0.015637 -0.0312478
1424 6 1 52.9789 49.466 24.9009 0.0024224 0.00238931 -0.0049336
1116 4 2 57.5007 45.8122 25.6558 0 0 0
1329 5 1 54.2682 47.0479 27.4666 -0.00417487 -0.00137612 0.00341904
2589 10 1 54.7918 49.4853 28.3226 0.000875563 0.00190806 -0.00553659
2388 9 1 53.5522 52.8143 23.5845 0.00997149 -0.00159907 0.00181398
1995 8 1 56.5562 52.4917 27.8235 0.00274542 0.000941201 -0.00194908
787 3 2 55.6066 51.854 30.5169 0.00964065 0.0225715 -0.0118781
2680 10 1 2.79772 53.5214 26.5687 0 0 0
250 1 2 8.43579 54.2822 22.6975 0.00389219 -0.00802869 -0.0123435
2448 9 4 15.0112 58.5744 28.3866 0.000947634 0.00173127 -0.000774615
2361 9 4 13.9741 55.0066 25.9326 0.000947657 -0.0051637 -0.00470766
1941 7 2 22.267 2.08212 38.677 0.00238331 0.00524128 0.0288092
490 2 1 18.586 49.6337 24.6797 -0.0012451 -0.0144656 -0.00175313
1890 7 1 18.4658 58.7648 25.8206 0.00135218 0.0042915 -0.00158453
1136 5 4 20.2005 0.0862858 23.3514 -0.00296975 0.00643613 -0.00119286
1612 6 1 25.9185 51.8435 28.4287 -0.00242615 -0.00434235 0.00729297
2357 9 1 30.208 57.5577 22.6707 0.0020514 0.00729797 -0.00495383
2540 10 1 24.2718 56.0319 24.4379 0.000823981 0.00307749 0.00147839
1020 4 1 22.7095 52.801 24.0992 -0.00065205 -0.0053451 0.000563418
2290 9 1 30.131 59.6294 28.3511 0.00362203 0.00522377 -6.94715e-05
31 1 1 26.1182 58.5731 26.6053 -0.00146978 0.00543021 -0.00145987
111 1 1 22.7732 51.1247 25.1031 -0.00139078 -0.00322313 -0.00281069
274 1 2 23.8864 41.7381 26.5579 -0.0172596 -0.0267668 0.00150112
2622 10 1 32.5229 0.699308 24.847 0.000691287 0.0110403 0.000508699
862 4 4 31.1374 58.3257 26.4787 -0.00439403 0.000710771 0.00048813
2372 9 4 32.5243 56.5378 26.3384 0.00238133 -0.00507532 -0.00526646
367 2 1 29.8711 56.5603 25.9762 -0.00711732 0.00269558 -0.00424812
1652 6 2 40.8993 57.4965 36.5158 0.00565396 0.000967347 0.0221087
1846 7 1 44.0346 52.7457 32.2187 0.00281616 -0.00355913 0.00481967
306 2 3 43.2711 53.5051 21.836 -0.000408394 -0.00217109 -0.0018812
1347 5 1 36.4303 55.2993 24.7266 -0.00411809 0.000143612 -0.00263751
1298 5 4 40.5776 58.4052 24.0424 -0.00354612 0.0009586 -0.00196783
899 4 1 42.0806 58.4982 30.2063 -0.00329784 0.00143474 0.00436842
347 2 1 40.7541 58.1633 30.5457 -0.0074052 0.00168541 0.0029513
1096 4 2 40.6439 55.7347 26.8098 -0.00463202 -0.00265463 -0.00347388
807 3 2 46.5085 51.7049 29.2384 -0.00803387 -0.0136254 0.00207796
84 1 1 46.4556 58.0648 25.9512 -0.00142131 -0.00245763 0.00298769
2562 10 3 44.8641 57.4639 24.4155 -0.000935296 0.00503309 -0.000470856
1472 6 1 45.1836 54.5597 28.1354 -0.00224841 -0.0024262 0.000302399
1696 7 1 52.3742 54.251 29.1577 -0.00292559 -0.00303698 -0.00667277
1257 5 1 50.358 52.7671 28.2841 -0.00291834 0.000389723 0.000386525
96 1 4 50.8473 55.0109 25.6365 0.000596232 -0.00284381 -0.00227555
345 2 1 0.264598 58.6239 26.1148 0.0025518 0.00347252 -5.43484e-05
873 4 1 52.0562 55.8738 28.1819 -0.00134441 -0.00187323 -0.00343231
775 3 1 59.0716 56.189 23.2127 0 0 0
2309 9 1 59.8588 53.952 23.0224 0 0 0
2599 10 4 58.6706 58.2995 23.6288 0 0 0
2669 10 1 59.1555 55.7327 28.69 0 0 0
270 1 2 58.3941 53.2591 25.1186 0 0 0
2524 9 2 58.0428 52.0333 31.5516 0.003205 -0.00879002 0.0122031
1255 5 4 0.140085 54.5643 25.7788 0.00182426 -0.000741194 -0.00433204
2034 8 4 1.36157 2.77695 33.3969 0 0 0
2452 9 1 2.19037 2.47218 37.0865 0 0 0
1718 7 1 5.30898 6.92701 35.2401 -0.000622224 -0.00785011 0.0141728
476 2 1 10.9069 59.5167 32.3145 0.0122985 -0.00438688 -0.00315627
2174 8 3 13.5437 7.36217 31.4076 0.000275374 0.00463432 0.00253156
2293 9 3 12.2185 0.176089 34.0022 0.00208675 -0.000434235 0.00369977
737 3 1 10.3254 5.20912 37.2986 -0.00303626 -0.00155799 6.14564e-05
1703 7 1 6.38167 2.0079 35.1475 -0.0035526 -0.00485892 9.38003e-05
2156 8 4 10.4077 4.14055 29.1854 8.29699e-05 -0.00676865 -0.00444316
10 1 1 10.1231 5.00665 27.3155 -0.00236729 0.00552857 -0.00826835
1549 6 1 20.522 59.6248 36.1947 -0.001863 -0.00347432 0.00122927
606 3 1 14.3658 4.71644 33.3748 -0.00441832 0.00521034 -0.000108716
2793 10 2 39.3046 55.5978 54.5189 0.0209187 -0.0113327 0.0503591
2098 8 1 23.8632 1.77623 35.2884 0.000633323 -0.00204918 0.00238394
900 4 1 25.8423 59.516 27.9062 -0.00613665 -0.00119734 -0.00602727
1529 6 1 32.8699 1.70633 31.2734 0.00810599 0.00298507 -0.00611231
2014 8 1 34.4673 58.7083 36.2583 0.006267 -0.00620155 0.00555899
1525 6 1 31.2781 0.887398 37.3806 -0.00185829 -0.00389216 0.00720146
2006 8 1 36.4645 4.5957 28.8773 0.00311835 -0.00198213 -0.00530837
1451 6 1 42.7005 -0.00249375 40.0757 0.00519697 -0.00595877 0.00776999
2649 10 1 43.6777 3.43981 36.1652 0.00178517 -0.00139332 0.00270182
466 2 4 38.2866 2.30768 32.4981 0.000307155 -0.00190823 0.000348014
1132 5 1 37.2225 1.9026 36.1472 -0.00720826 -0.00096483 0.00096677
2468 9 1 41.1998 4.25423 32.753 0.004914 -0.00624156 -0.00116214
2747 10 1 43.8651 5.80778 38.8972 0.00532702 0.00644409 0.00426033
2383 9 4 41.9192 2.73348 34.5674 -0.00194057 -0.00394238 -0.00479242
2557 10 1 50.0459 5.73274 31.8992 0.00398659 0.00455427 0.00155892
2168 8 1 50.6387 2.85793 30.3536 -0.00367346 -0.00234843 -1.46366e-05
762 3 1 41.6538 57.9677 33.2911 -0.00764187 -0.00531366 -0.00046148
1818 7 4 50.7721 6.13586 33.6329 -0.00074788 -0.00262377 -0.00307612
1462 6 4 47.3275 5.21949 37.0068 0.00200405 -0.00305235 0.00169488
1685 6 2 44.0959 5.19356 30.7351 -0.00251993 -0.0037047 -0.0062084
2312 9 1 48.4678 0.295992 35.3147 0.00189688 -0.0034229 -0.00445933
2806 10 2 43.5471 14.8286 27.4552 -0.00431558 0.0179141 -0.0180174
316 2 1 57.2211 5.83754 32.5524 0.00187352 0.00303976 -0.0013379
1415 6 1 59.4626 4.28264 31.4382 0.000926132 0.000230139 0.00195559
1045 4 1 53.7807 5.5525 30.094 -0.00104684 -0.00343363 0.0025747
603 3 4 57.8537 1.49107 36.4541 0 0 0
600 3 1 59.1241 5.38449 36.2702 0 0 0
2013 8 4 55.9094 6.66607 35.0114 -0.00325148 -0.00323871 0.00144589
2017 8 1 2.45864 9.86372 36.0648 0 0 0
1806 7 1 2.39455 10.7608 34.8533 0 0 0
2645 10 1 12.3793 20.9852 33.1029 0.000948544 0.0138713 0.00251741
2743 10 4 12.7455 12.5543 38.0666 0.000139349 -0.000493465 0.00345146
666 3 1 10.3069 7.74836 34.305 0.00371603 -0.0041116 -0.00348218
2447 9 3 9.4549 8.2038 30.8655 -0.00050721 -0.00352432 -0.00602415
2037 8 1 14.4608 10.1967 28.1353 0.000857671 -0.00607892 -0.00645295
513 2 2 6.6994 7.11123 32.3867 0.00501345 0.0184265 0.00567292
549 2 2 16.7384 4.14188 28.5717 -0.00465408 -0.00878857 -0.00574228
851 4 1 24.2144 11.5843 35.3354 0.00589453 0.00513442 -0.00369915
588 3 3 29.7787 12.2416 33.6465 0.00521614 0.0089861 0.00499486
2629 10 1 30.4168 9.56626 31.0232 0.011031 -0.00413941 0.00155876
115 1 1 27.8477 9.1914 30.529 0.00465226 0.00137056 0.000814558
1950 7 2 18.6957 5.419 35.2787 -0.0185512 -0.00781031 0.00654615
1171 5 1 27.4408 9.63997 42.882 -0.000340519 0.0015527 0.0118545
1252 5 1 25.9198 13.726 37.1964 -0.00216422 0.0025586 0.00626574
746 3 4 24.6211 11.0332 31.9584 -0.0037999 -0.00129652 -0.00160316
16 1 4 27.1123 12.0767 30.6076 -0.00419155 0.00112868 -0.00145979
1530 6 1 26.2768 8.616 30.2188 -0.00402222 -0.00665977 -0.00320902
2536 9 2 23.2231 19.9235 31.4585 0.000542314 0.020498 -0.0109226
2373 9 1 36.8082 7.81768 37.2865 0.00383071 -0.0121352 0.0110999
201 1 1 27.2452 10.1453 30.0802 -0.00612815 -0.000938017 -0.00024976
936 4 3 33.2279 8.30247 38.7853 -0.00385663 -0.00199609 0.00373598
221 1 1 34.7157 14.822 36.8021 -0.00288582 0.00349001 0.00578025
1611 6 1 35.3097 15.6408 37.2715 -0.00358318 0.0037717 0.004808
1872 7 1 34.6294 11.4846 29.8334 -0.00478331 -0.000585142 -0.00070408
2 1 1 37.6681 12.1228 38.1738 0.000385009 -0.00590782 0.00434188
2456 9 3 47.4452 17.0002 34.2773 0.0121483 0.00549385 -0.00181863
307 2 1 34.4905 7.17305 36.0634 -0.00661969 -0.00208572 -0.000387393
1233 5 4 40.183 9.56157 36.4001 -0.0011578 -0.00321294 -0.000259592
2326 9 1 38.0321 9.98992 36.8737 -0.00447181 -0.00267496 0.00250227
1107 4 2 51.7577 18.7337 31.574 0.0128864 0.00277775 0.00786999
267 1 2 42.8005 17.3378 29.903 0.00766509 0.00667744 -0.00881871
2579 10 1 45.7013 12.7545 32.6781 0.00389153 -0.000167847 -0.00536309
1149 5 1 50.6962 16.5475 32.8694 0.00096182 0.00794525 -0.000664058
1554 6 1 49.6919 11.7859 36.5757 -0.00517086 -0.000299519 0.00316181
445 2 1 44.3395 9.89656 37.3559 -0.0033146 -0.000180096 0.000697362
2173 8 1 58.6844 14.7539 28.7025 0.00564723 0.00411911 -0.00275528
2537 9 2 53.8321 7.26658 31.0219 0.00316111 0.000291938 0.0138317
1689 6 2 53.483 13.9778 35.5507 0.00544524 -0.0107717 0.00189906
1239 5 1 56.1059 9.35536 33.3718 0.00659007 0.00346084 -0.00136671
2179 8 4 59.1966 10.9678 30.829 0.00140873 0.00109838 -0.00253872
2166 8 4 54.6972 12.4262 32.0521 -0.000713697 0.00358579 0.00276857
1115 4 2 58.9565 10.5129 34.7749 0 0 0
922 4 1 55.9021 14.8372 31.8145 0.000117544 -0.00350617 0.00405908
20 1 1 55.8216 13.7154 32.994 0.0040621 -2.70048e-06 0.00188552
2567 10 1 2.65477 17.2251 31.094 0 0 0
1990 8 4 0.0344758 20.9812 33.3674 0 0 0
2564 10 1 1.35489 17.9627 32.922 0 0 0
2018 8 1 2.19085 19.9815 36.7156 0 0 0
183 1 1 2.7406 18.2822 32.0351 0 0 0
1740 7 1 2.51176 22.1491 35.3867 0 0 0
2009 8 1 4.3523 19.7911 33.8357 -0.00836091 7.97001e-05 0.0135887
1097 4 2 16.1193 19.8826 31.4877 0.0211623 0.018004 -0.0100659
1399 5 2 11.6039 15.3938 37.3635 -0.00274441 -0.00946592 0.0129258
1615 6 4 7.43014 16.679 31.7748 0.00650171 -0.00271848 0.00939142
1305 5 1 10.3025 15.8735 28.1271 0.00644125 -0.00535421 -0.00857053
280 1 2 14.6749 21.7254 45.0129 -0.00211841 0.00698414 0.0290049
1984 8 1 16.3496 19.4031 37.7613 0.000580258 0.00516751 0.00264683
1559 6 4 22.4186 15.836 37.8252 0.00928987 0.000791271 0.00545204
1172 5 1 18.9431 18.5798 34.5486 -0.00137719 -0.00345542 -0.00109744
2471 9 4 16.9358 19.5186 35.5541 0.000437577 -0.00358214 0.00064291
835 3 2 23.742 30.067 47.8997 0.00250512 0.0207245 0.02357
2288 9 1 20.6166 20.5496 36.1228 -0.00516092 0.00114559 0.00280036
455 2 1 29.0651 18.6745 32.5951 -0.00360104 -0.000180341 -0.000109277
1594 6 4 31.8061 21.4055 32.0913 -0.00303151 -0.000622054 -0.00294616
395 2 1 29.1939 18.3851 32.4776 -0.00484813 -0.00338596 -0.00257692
2636 10 1 35.0908 19.4043 32.5213 0.000666381 0.000367926 -0.00430217
2437 9 1 39.1764 22.5279 34.4045 0.0133052 0.00557617 -0.00410495
428 2 1 32.3612 21.6096 35.3811 -0.0028953 0.00193121 -0.00266803
1079 4 2 35.081 15.2615 25.1712 -0.00256513 -0.00719227 -0.01588
1633 6 2 34.7452 23.957 35.0273 -0.0134805 0.0139825 0.0060715
924 4 1 42.5594 18.3356 31.975 -0.00186859 6.43984e-05 0.0038225
1325 5 1 37.884 17.8797 34.108 -0.0006954 0.00229207 0.000641504
2120 8 1 38.0686 17.973 37.0437 -0.00229093 -5.32934e-05 0.00356151
1181 5 1 43.2153 23.7126 33.2029 0.00121603 0.00355666 -0.00123211
2427 9 4 43.9108 20.263 30.3302 0.00225688 -0.0013853 -0.000194478
360 2 1 43.3826 14.0396 32.0907 -0.00126589 -0.0031505 -0.00297217
1738 7 3 42.1498 17.9963 29.9427 0.00135748 -0.00144537 -0.00764843
1956 7 2 48.1667 13.5473 28.06 -0.00553686 -0.0033507 -0.00670859
953 4 1 50.8056 20.4547 34.7698 -4.97328e-05 0.00412964 0.00635224
593 3 1 52.1089 19.6463 32.1366 -0.000916598 0.00104586 0.00166333
223 1 2 48.712 16.1789 38.4616 0.0012282 -0.0111262 0.010655
1748 7 1 50.6902 19.3258 39.282 0.00252812 0.00496478 0.0051132
917 4 1 47.2188 23.2448 38.26 0.00162248 0.00461028 0.0062417
206 1 1 50.3864 19.8404 35.3476 -0.00164067 0.00119971 0.00552197
970 4 1 45.8552 21.2942 35.8005 -0.00127202 0.00352009 -0.000494589
1150 5 1 50.3301 19.6529 33.6592 0.00086781 0.00204779 -0.000694279
2685 10 3 51.5291 18.891 30.737 0.00704061 0.00220195 -0.00130828
2445 9 1 47.8281 19.3258 30.6651 -0.00186454 -0.0017738 -0.00350425
61 1 4 53.2798 18.2614 33.1214 0.00589468 0.00193222 -0.00122091
2673 10 1 52.1907 19.8415 34.8574 -0.00670315 0.00120956 -0.00113081
1775 7 4 52.1746 17.6194 34.3919 0.00011547 -0.000424529 0.00381054
1605 6 1 50.7371 21.9238 32.533 -0.00176381 0.00304538 0.00160672
692 3 1 56.9377 22.0896 34.8004 0.00622353 -0.00161971 0.00220054
650 3 1 53.829 21.103 32.5159 -0.00153976 -0.00534501 0.00262018
2573 10 1 54.7664 18.5419 33.753 0.000620544 -0.00530056 0.00221129
2451 9 1 52.2215 17.3351 34.7085 -0.00123645 0.00164615 0.00399325
750 3 1 58.7905 20.0062 30.8461 0 0 0
313 2 1 58.0347 20.8091 31.681 0 0 0
1856 7 1 56.9555 20.408 33.4245 0.00340897 0.00243302 0.00349481
776 3 1 59.5912 22.6661 35.1059 0.00171169 0.00396362 -0.00229743
1803 7 1 1.71544 22.9033 30.2018 0 0 0
629 3 1 2.96315 26.4085 36.339 0 0 0
773 3 1 2.36149 29.3017 34.3872 0 0 0
2176 8 1 5.37182 26.3183 36.4694 -0.0014518 -0.00450838 0.000652833
2798 10 2 0.253995 26.0964 26.3511 -0.0209487 -0.00770263 -0.0392177
951 4 4 19.9101 22.9286 35.2252 0.0102847 -0.00351833 0.00319425
1286 5 1 11.2176 24.4721 32.2513 -0.00184724 -0.00232979 -4.83667e-05
164 1 1 10.7634 27.4146 36.0569 -0.00223986 0.00118646 0.000553795
1450 6 1 13.4332 21.9061 35.5813 -0.00149398 -0.00174469 0.00186353
738 3 1 8.60259 28.8685 37.0256 -3.50297e-05 0.00591056 0.00264138
1964 7 2 22.9368 27.3125 28.3885 0.0257452 0.00650627 -0.0125134
359 2 1 15.4162 24.8276 35.4754 0.00204543 -0.00282382 -0.00238918
1508 6 1 11.8756 29.9677 32.4851 -0.00332214 0.00464017 -0.00601969
1783 7 1 11.8019 27.5655 32.6406 -0.00103611 -0.00442945 -0.00666844
506 2 2 15.7826 32.2857 38.5853 -0.00506699 0.0193937 0.00988042
2229 8 2 37.0826 23.0067 44.922 0.0414451 -0.000709269 0.0251915
908 4 1 19.4343 28.578 34.6762 -0.000709768 0.0046948 0.00593202
830 3 2 16.2771 24.1782 42.0784 -0.0110157 -0.000828647 0.0130419
249 1 2 26.7698 27.5515 35.4021 0.0155181 0.00335431 0.0006697
1709 7 4 20.6193 32.1451 37.3909 -0.000617869 0.00630671 0.000725788
356 2 4 19.5991 30.5431 32.2366 -0.00542323 0.00116434 -0.000813848
1013 4 1 24.229 25.8773 33.8988 -0.000250296 0.00421523 0.00142368
2010 8 1 23.9338 22.6143 39.3454 0.00185498 -0.00612687 0.00749214
384 2 1 22.7494 23.5504 29.9542 -0.00129646 -0.000578261 -0.00220798
1207 5 1 23.6016 22.2476 26.4281 -0.00168104 -0.00166514 -0.00753499
542 2 2 26.3374 28.5666 44.7447 -0.0107404 0.00737101 0.0291383
969 4 1 33.5817 27.6984 30.2545 -0.000980627 -0.00143346 0.000309655
1152 5 3 33.1157 25.005 29.5704 -0.000629428 0.0026799 -0.00113756
740 3 1 29.5978 27.562 35.1381 -0.00436886 -0.0012067 -0.00104153
78 1 1 36.1538 20.5235 30.0126 -0.000855319 -0.00621365 -0.00101424
1785 7 1 28.0711 29.2143 35.6573 -0.00531425 0.00127503 -0.00105742
2623 10 1 34.9151 24.3059 37.035 0.000966312 -0.00463821 0.0018578
1400 5 2 30.8243 21.9011 31.2032 -0.00723829 -0.0111529 0.00062424
1199 5 1 35.044 28.965 24.3899 0.0054822 0.00567372 -0.0142194
185 1 1 37.2163 27.1144 36.7859 -0.00266455 0.00406294 0.00327421
974 4 1 36.8065 26.894 34.964 -0.0047902 0.000985068 0.00268644
1815 7 1 40.4348 30.3696 31.0952 -0.00746188 0.00212113 0.00102923
368 2 1 42.9537 28.5872 31.3475 -0.00131889 -0.00257595 -0.00351289
1393 5 2 35.5016 25.1397 42.0309 -0.00990409 -0.0060958 0.00998827
1672 6 2 27.9963 28.757 33.7645 -0.0248968 -0.00230595 -0.00239676
571 3 1 40.1876 22.8448 31.4775 -0.00141364 -0.00516492 -0.00798715
521 2 2 48.6585 34.4704 41.2938 -0.000176154 0.0121197 0.0120784
995 4 4 51.0171 26.9995 30.8611 0.00216229 -0.00224767 -0.000723038
1018 4 1 46.9443 23.2997 31.0444 0.00182203 -0.00216893 -0.00477896
1401 5 2 5.31179 29.8732 31.546 -0.010869 -0.0210775 0.0102643
2207 8 2 53.6514 28.3922 32.399 0.0123634 -0.0125718 -0.0102849
654 3 3 55.6675 28.604 34.2589 0.00104171 -0.00122757 -0.00281455
624 3 4 54.4148 24.9483 34.1297 -0.00723597 -0.00102456 -0.00386826
701 3 1 53.93 26.6348 35.4579 -0.00680354 -0.000115566 0.00210904
1720 7 4 54.4569 25.02 35.0098 0.000122726 -0.00371168 -0.0028142
1499 6 1 54.4048 28.1738 31.1031 0.00201367 -0.00309273 -0.00230453
1370 5 2 51.7231 26.0312 33.4333 0.00674765 -0.00678971 0.00399648
152 1 1 10.3868 38.7462 32.9456 0.00850137 0.00036242 0.00999523
1362 5 2 2.76874 35.9095 31.706 0 0 0
659 3 1 1.05873 36.2423 33.7183 0 0 0
628 3 1 0.310743 35.7845 32.4359 0 0 0
343 2 4 1.91738 35.2796 35.7854 0 0 0
545 2 2 1.41483 33.4484 32.4153 0 0 0
2466 9 1 2.34602 35.2907 37.4199 -0.00809932 0.000618532 0.00286662
2241 8 2 5.37172 27.7318 30.6193 -0.0105374 0.00502836 -0.00790903
2568 10 4 14.4822 33.3294 31.0482 0.00755321 -0.00527954 -0.00600904
785 3 1 18.8691 28.3934 33.2082 -0.00365679 -0.00488096 0.00361282
713 3 4 23.7357 38.0196 36.1113 0.00487277 0.00248914 -0.00248911
242 1 2 33.4642 40.7865 33.9194 0.0194778 0.0166215 0.00151781
1807 7 1 26.9082 36.4249 35.3277 0.0054054 -0.000541065 -0.00101017
1843 7 1 30.8952 27.3411 36.4531 0.00296181 -0.00834972 -0.000184574
2790 10 2 22.8485 34.6799 28.9317 -0.0118916 0.000470155 -0.0153206
2110 8 1 23.8873 34.4754 35.1412 0.000980135 -0.00436516 -0.00413698
1444 6 1 32.2905 34.5172 31.1825 -0.00515673 0.00502096 0.00199561
1221 5 1 33.4264 30.7169 34.5805 -0.00151746 -0.000709511 -0.000435349
2815 10 2 48.8403 28.855 44.2676 -0.0181646 -0.00290632 0.00965651
2809 10 2 44.2402 40.0828 38.0012 0.00324482 0.00912768 0.00884452
2379 9 1 43.509 26.1651 34.9896 0.003063 -0.0139567 0.00729416
933 4 1 42.9343 35.6179 31.0928 0.00043253 0.00609769 -0.00632892
1460 6 4 45.0284 37.0744 31.4046 0.00502456 0.00191078 0.00108194
1899 7 1 40.4797 34.5143 36.4463 -0.00312524 0.00241521 0.00563828
121 1 1 37.0193 37.1116 31.6542 -0.00207163 0.00343797 -0.000122026
197 1 1 40.7617 36.5672 32.1929 0.00142257 0.00222982 -0.00136371
1606 6 1 42.4973 33.7147 30.1314 -0.000527974 0.000157467 -0.00482076
1193 5 1 38.7972 31.8535 31.3634 -0.00482001 -0.00312752 0.00086462
155 1 1 42.5465 40.4077 34.545 -0.00227137 0.00647631 -0.000476044
2800 10 2 43.2923 42.2859 14.7607 0.0114443 0.0135399 -0.0378128
252 1 2 35.9588 37.8354 28.1117 -0.00766591 0.00547446 -0.0186008
2169 8 1 51.2414 35.3108 31.7566 -0.000468863 0.00110373 -0.000875373
2091 8 1 50.0008 35.275 38.252 0.00296058 0.0011813 0.0028771
1418 6 4 49.9959 30.7378 33.2563 -0.00472069 0.0019307 0.00430194
1929 7 2 43.5687 33.3473 27.8948 -0.0166057 -0.00797265 -0.00515982
496 2 3 46.1017 32.7697 27.9066 -0.00340845 -0.00624648 -0.0064584
1978 8 1 58.5111 33.8792 33.3586 0.00355066 0.00123787 0.00463911
2386 9 1 1.57796 32.8563 36.3791 0.00453988 0.00395773 0.0012004
2558 10 1 55.3145 31.8963 34.1108 0.00126775 -0.00961 0.00834648
1918 7 2 58.9308 33.6907 33.2768 0 0 0
100 1 1 57.7 32.1835 37.2361 0.000949765 0.000997559 0.00352005
857 4 1 57.9531 37.1265 40.5071 -0.000987114 -0.000628377 0.0103387
1638 6 2 56.9246 44.3629 47.2187 0.00202586 0.00255489 0.0208979
1864 7 1 0.899078 41.8298 36.3928 0 0 0
661 3 1 1.98329 43.8388 37.4809 0 0 0
2767 10 2 56.0303 39.6311 31.5869 -0.0245166 -0.0221305 0.0057864
1878 7 1 15.243 42.7222 34.4342 0.000853306 -0.00444744 0.00613467
1565 6 1 15.8572 40.5189 30.4767 0.00339642 0.00459476 -0.00472769
1580 6 4 15.0667 46.7357 26.2403 0.00237567 0.00694443 -0.00933825
407 2 3 13.3 41.7653 29.6839 -0.0022306 0.00184933 -0.00142291
1176 5 1 11.4499 42.4849 31.9137 0.00640474 -0.00350044 -0.00458264
1167 5 4 13.5708 39.1226 31.6928 -0.00196912 -0.00169374 -0.00700192
2771 10 2 18.8147 38.7765 33.8295 -0.00644455 0.00197754 -0.00112995
1258 5 1 24.6704 40.54 32.0113 0.0110408 0.00285832 -0.00143068
2340 9 1 17.2236 40.5231 36.7311 5.66641e-05 0.000268711 0.00244231
1860 7 1 20.8171 42.1722 30.2325 0.000756709 -0.00517358 -0.00703815
2211 8 2 16.8971 37.2169 31.7994 8.29096e-05 -0.00397791 -0.00583006
245 1 2 27.2612 40.5022 40.0077 -0.00152308 -0.00439228 0.0174118
1570 6 4 26.5628 38.9528 34.6127 -0.00468787 0.00280021 0.00205194
723 3 1 24.6413 42.35 40.5714 -0.00196717 0.0021097 0.00686504
2620 10 4 31.3728 44.9337 28.6819 0.00387158 0.00260483 -0.00662871
43 1 1 31.5625 36.8303 37.9167 0.00467062 -0.0100205 0.00156263
276 1 2 33.2974 32.267 24.6965 0.0105037 -0.0136626 -0.0116314
1073 4 2 23.0718 53.152 18.8618 -0.00133832 0.0180908 -0.0252989
102 1 1 28.8596 41.8749 32.563 -0.00125024 0.00173699 -0.0079811
2409 9 1 36.0897 40.0082 35.1887 0.0036679 0.00316852 0.00308638
1485 6 1 31.6255 42.875 35.433 -0.00553432 0.000809234 0.00257821
2545 10 1 33.7115 40.6251 35.3379 0.00201995 -0.00427489 0.00238409
2792 10 2 47.3199 46.2437 34.079 0.0242433 0.00646206 -0.00409578
1582 6 1 28.7895 41.4517 36.1102 -0.00319424 -0.000629653 -0.00210806
238 1 2 42.0762 32.5432 48.1574 -0.000157483 -0.0103302 0.0313024
2794 10 2 49.5327 47.0698 31.2643 0.0192172 0.0105222 -0.00169591
1169 5 1 43.794 39.8598 31.7658 0.00777276 0.00365072 -0.00310332
23 1 1 39.8711 38.9576 34.0028 -0.00164429 -0.00518887 0.00133535
41 1 1 47.4796 38.1727 32.8363 0.000477664 -0.00273693 0.00572923
1214 5 1 45.2033 38.938 36.2498 0.000210533 0.000144601 0.00550488
2600 10 1 44.1772 40.0578 33.9107 -0.00246555 6.00174e-05 0.000750739
2134 8 4 48.238 42.2574 30.0161 -0.00308549 -0.000593059 -0.0002631
1265 5 1 47.1603 45.1253 32.5636 -0.0110747 0.00313933 0.00266998
2258 9 1 51.2228 42.0117 31.434 0.00266961 -0.000890257 0.00284343
1973 7 2 50.931 37.2356 33.5358 -0.000263993 -0.0114489 -0.00049921
2217 8 2 43.0399 28.7042 31.1053 -0.00523471 -0.0299221 -0.009186
2527 9 2 48.2735 46.0202 36.1581 -0.0148401 0.00711962 0.00728295
1736 7 1 52.6504 41.2585 31.6163 -0.00316166 0.00325183 -0.00633567
780 3 2 53.8004 34.0558 36.8346 -0.0202631 -0.00830651 0.00900325
660 3 4 55.6648 39.3299 35.6459 0.0027838 0.00296456 -0.00229191
1392 5 2 57.6728 43.5526 31.6576 0 0 0
1865 7 1 59.4743 39.6298 35.2632 0 0 0
1882 7 1 59.775 42.2264 33.3476 0 0 0
1248 5 1 57.4384 41.7812 34.7491 0 0 0
2205 8 2 57.2404 40.6157 36.8785 0 0 0
2789 10 2 56.7792 46.535 40.4765 -0.0155592 0.00411918 0.0193
2534 9 2 2.75387 48.97 30.4685 -0.00424566 -0.0243211 -0.010596
1592 6 4 7.04712 49.5895 37.8893 0.000626688 0.0013956 -0.000152842
1256 5 1 2.16605 54.8929 37.3396 -0.00554694 0.0146649 -0.00302581
684 3 1 13.425 45.8938 40.8141 0.0042222 -0.00166788 0.00825595
2683 10 1 9.90767 50.4155 30.7413 -0.000579133 -0.00166675 -0.00472677
589 3 1 10.9025 49.6263 26.7431 0.00505083 -0.00192775 -0.00898102
741 3 1 16.6532 43.0588 33.8375 0.00265172 -0.0117439 0.00657695
2616 10 1 19.9664 47.4608 36.268 -0.000286659 0.00389858 0.0014989
2470 9 3 21.7298 51.8445 36.9836 0.000879777 -0.000308555 0.00700986
682 3 4 17.852 50.5988 35.636 -0.0037799 -0.00351402 -0.0016534
2385 9 1 14.667 43.5143 35.1445 -0.00649507 -0.00401433 -0.0031355
2341 9 1 27.251 50.2287 31.8678 0.00264596 -1.87808e-05 0.00265346
2319 9 1 27.1986 47.0736 34.8592 6.78643e-05 0.00138486 0.00183722
1901 7 1 25.2133 44.7209 30.8483 0.000277728 -0.00395391 -0.00527127
269 1 2 34.1911 54.4944 33.3364 -0.0036767 0.0142344 0.00463526
883 4 3 34.3221 42.6494 28.0869 0.00555524 -0.0050781 -0.00499546
1432 6 1 37.706 49.5787 33.871 0.00399274 0.0011485 -0.000358686
435 2 1 32.0057 45.675 30.8391 -0.00135273 -0.0043017 -0.000202786
1001 4 1 36.2004 52.7952 27.8599 0.000955741 0.00106992 -0.00583631
292 2 1 40.5508 50.4919 40.0161 0.00926431 -0.00312053 0.00810629
839 3 2 30.089 42.8017 25.2271 -0.001447 -0.00931433 -0.0204551
1967 7 2 41.1115 53.0987 34.2704 -0.00600362 0.0127397 0.00265596
1263 5 1 41.7991 53.0081 33.383 0.000117907 0.00671111 -0.000130702
2265 9 1 36.3469 44.7044 34.204 -0.0030366 -0.00228301 0.000593184
930 4 1 36.57 47.0185 36.6383 -0.00501928 -0.000294136 0.00267003
333 2 1 41.4952 50.4794 33.4285 -0.00478352 0.00298864 0.0022799
113 1 1 42.0947 50.3324 31.5933 -0.00305451 0.000324599 0.000284085
2178 8 4 43.4017 47.8759 28.7445 0.00465642 -0.00565347 -0.00474393
1835 7 1 51.6431 51.2203 32.7448 0.00186091 0.00578486 0.00138237
1924 7 2 50.9885 48.516 34.2254 -0.00131192 -0.00302738 0.00594854
1074 4 2 45.6816 48.2255 30.9496 0.000807158 -0.000784548 -0.00625024
2738 10 3 51.2697 48.1326 33.7233 -0.0025903 2.33072e-05 0.00588201
1858 7 1 47.8078 51.0037 37.5889 -0.0026807 0.00427009 0.0040093
469 2 1 43.7475 45.7037 32.1998 -0.00638223 -0.00170302 0.00191795
495 2 4 51.9853 49.9958 36.4201 -0.000844922 0.00430589 -0.00200131
2292 9 1 48.954 52.1228 34.7652 -0.00257363 0.00153233 0.00112015
2194 8 1 53.2002 46.9517 31.9492 0.00138612 0.00133155 -0.00599791
1812 7 1 51.6321 50.1252 33.1189 -0.00226086 -0.00223869 -0.00708141
2724 10 1 50.8146 49.0922 35.3853 0.00558455 -0.00305534 -0.00292985
1031 4 1 58.3809 49.4406 34.0136 0.004419 -0.000444447 0.00124438
2528 9 2 2.7287 40.3172 38.4083 -0.00979285 -0.0157888 0.0281842
1153 5 1 56.6078 48.1111 33.5152 0.00330523 -0.00303396 0.00650899
1871 7 1 53.0263 48.63 33.8976 -0.00228626 0.00106428 0.00362845
2122 8 4 0.69078 48.6902 33.4324 0.00246386 0.00147345 -0.00226937
2465 9 1 58.6091 52.4006 35.3635 0 0 0
1315 5 1 57.5902 46.5356 34.8739 0 0 0
1405 5 2 59.5893 49.0643 35.8723 0 0 0
1658 6 2 0.16279 50.2666 28.995 -0.0274463 -0.0286779 -0.0457505
1643 6 2 53.5514 42.6538 24.9654 0.0201671 0.0166004 -0.0212487
1103 4 2 8.70006 2.60081 32.7709 0.0310151 0.0464096 0.012098
1338 5 1 0.110893 59.5085 36.0043 0 0 0
877 4 1 13.3756 52.4268 33.2109 0.00319496 -0.0104988 0.00285567
329 2 1 13.6245 54.2243 27.711 0.0118206 0.00379902 -0.00668731
2384 9 1 9.72855 56.8978 37.537 0.000408706 0.000376384 0.0020458
911 4 1 12.9375 59.2399 33.1189 0.000674892 0.000183304 0.000207612
799 3 2 17.7497 4.33634 27.3505 0.0102298 0.0091518 -0.011664
1764 7 4 21.068 1.30342 34.0093 -0.000381403 0.00399234 0.00461583
2038 8 1 17.9064 52.6144 30.5794 -0.0064691 -0.000218895 0.000809138
514 2 2 12.6519 51.5965 28.9458 -0.00972002 -0.0119917 -0.00497998
1375 5 2 13.3996 7.04328 36.6486 -0.00746641 0.0223968 0.00526813
95 1 1 20.1877 57.2369 32.6447 0.00514617 0.0077122 0.00227622
2811 10 2 25.9087 2.56228 33.6391 0.0109815 0.0146511 0.000945695
1251 5 1 12.891 56.6378 29.7034 -0.00539214 -0.00129555 -0.00228952
2090 8 4 20.7443 58.876 32.1617 -0.000151966 0.0037509 -0.00353563
2198 8 2 15.8364 56.7986 23.9554 -0.00597372 0.00680801 -0.0240796
967 4 1 22.4616 52.374 34.7255 -0.00221484 -0.0109443 0.00669625
271 1 2 22.6689 44.8233 33.8826 -0.00821481 -0.0207332 0.00410131
1091 4 2 23.6103 52.0307 43.7681 -0.0125414 -0.00621849 0.0147459
2190 8 2 23.1104 1.62282 39.6237 -0.00638594 0.0105726 0.00740193
2681 10 1 23.4077 54.1631 36.4937 -0.00549261 0.00264965 0.00036527
850 4 1 32.969 56.5187 33.7258 0.0105723 0.0036902 -0.00684251
310 2 4 35.9539 58.4996 36.0418 -0.00128691 -0.00163324 -0.000635723
1198 5 1 32.135 55.6387 38.5694 -0.00275765 0.0027101 0.0063744
2760 10 2 28.2171 51.8827 33.4389 -0.00502393 -0.00598058 -0.00352801
2634 10 4 32.3681 57.3117 34.2209 0.00050021 -0.00173303 -0.00439091
2630 10 1 41.2258 56.8944 38.4051 0.00131678 -0.00170836 0.00210911
788 3 2 37.5656 51.9037 30.8673 -0.005359 -0.00457139 -0.000597412
465 2 1 41.149 52.499 29.2963 0.000606097 -0.0029078 -0.00620647
1119 4 2 44.325 39.6432 26.9878 0.0139974 -0.0266526 -0.017541
792 3 2 42.131 53.5518 39.1076 -0.0135625 0.000552877 0.012259
1756 7 1 50.66 54.0356 30.4739 0.0027258 0.00279436 -0.00167001
1478 6 3 50.9658 53.5888 36.5709 0.00186818 -0.00428212 0.00661499
1303 5 1 49.1002 56.8238 30.2627 -0.00627309 -0.00093196 -0.00197235
2075 8 1 49.8046 58.0925 31.8989 -0.00327722 -0.000847365 5.2087e-05
2328 9 4 49.5187 53.387 36.9764 0.00255917 -0.0041567 0.00232324
2142 8 1 52.5258 57.6212 34.3754 0.00227544 -0.00202129 -0.00267204
1174 5 3 51.3868 58.505 32.0864 -0.000888067 0.00140781 -0.0028359
1190 5 1 51.8639 56.1374 31.2983 0.00449967 0.0039576 0.00234425
756 3 4 44.4869 52.2908 29.7733 -0.00233266 -0.00396381 -0.00437894
1284 5 3 51.3401 54.1863 35.486 -0.00148015 -0.000461852 -0.00184654
790 3 2 38.182 51.8092 41.2908 -0.0224331 -0.00182882 0.0112604
60 1 4 56.9333 51.3959 32.2322 -0.00185971 0.00180635 1.71966e-05
2773 10 2 53.6833 57.5564 26.6104 -0.0117404 0.0035028 -0.0086578
975 4 1 54.2997 59.9806 33.3196 -0.0019555 0.00301687 0.00205609
2692 10 1 53.881 54.2013 33.5978 0.00157667 -0.0048663 -0.00303114
1216 5 1 52.2322 55.2427 34.4581 -0.00592639 0.00171421 -0.000472621
1025 4 1 53.2283 54.5655 31.9826 -0.00569929 -0.000760771 -0.00894394
1644 6 2 57.1409 56.2734 35.4085 0 0 0
2816 10 2 56.5976 56.7817 33.7866 0.000700404 -0.00537674 0.00849769
836 3 2 51.751 58.5361 37.3476 -0.0146914 0.000121063 0.0123928
1651 6 2 58.1613 0.567622 33.4352 0.0121299 0.00165183 -0.00644964
2750 10 1 2.41115 57.9048 42.0422 0.0037008 -0.00543581 0.00279907
2267 9 1 13.2409 1.06989 39.5908 -0.000928211 0.000845789 0.00153798
205 1 4 12.4169 1.77363 40.8528 -0.00127911 -0.00121974 -0.000776523
2101 8 4 10.0135 56.2896 45.5402 -0.000732147 -0.00866784 0.00330602
941 4 1 11.78 2.73023 38.2156 -0.00644782 -0.00504113 -0.00227634
2371 9 1 16.3274 7.37564 39.2711 0.000542537 0.00196206 0.00195921
522 2 2 6.02068 4.44447 40.9741 -0.017882 0.0104815 0.00298953
1819 7 4 18.1107 3.32589 35.4019 0.00576636 -0.00755609 -0.00509341
361 2 1 21.5591 2.90256 46.5534 0.00299347 -0.00689869 0.00384822
727 3 1 19.9455 5.78357 37.3143 -0.00429535 -0.00236283 -0.00742035
2238 8 2 12.4221 9.12311 38.112 -0.00587544 0.00818727 -0.00800979
389 2 1 24.4491 1.7842 39.3026 -0.00613591 -0.000706212 0.00223877
1863 7 4 24.7151 6.18468 42.0097 0.00231424 0.00425207 -0.00136431
451 2 3 26.7464 58.781 44.7063 -0.00134626 -0.0026958 0.00174603
1701 7 1 26.7309 2.16332 44.0484 -0.000362411 -0.00245957 0.00159974
2316 9 4 25.3136 3.67787 41.9194 -0.000375339 0.00288329 0.00254034
474 2 4 22.1744 1.69125 38.8643 -0.00126686 -0.00197337 -0.00575437
278 1 2 29.7783 58.2189 47.3501 0.00642072 -0.0128695 0.00979927
1714 7 1 31.6128 3.01111 42.5109 0.00438817 -0.00838827 -0.000911924
1047 4 1 26.4681 8.00425 41.2459 -0.00182449 0.00201042 -0.00423911
671 3 1 27.3579 3.86964 43.8396 -0.00342506 0.00292749 -0.00186223
1409 5 2 30.0699 10.7515 30.437 0.00331837 0.0135229 -0.0215214
1669 6 2 19.9486 5.05596 33.9647 -0.0155521 0.00779926 -0.0140216
988 4 1 30.7529 5.91051 41.5297 -0.00598358 0.00212822 -0.00203349
2321 9 1 32.7337 4.18701 38.256 0.000744974 0.0030898 -0.0037576
2702 10 1 37.8415 3.95109 40.0803 0.00301495 7.32091e-05 -0.00367487
386 2 4 35.5367 6.60542 40.9432 -0.00339744 0.000196998 -0.00279279
1699 7 1 42.4634 4.97478 44.4133 0.00143094 0.00389348 0.00771563
1491 6 3 43.2666 5.04334 38.6468 -0.00317879 -0.00361926 0.00141289
1655 6 2 46.3486 5.38314 34.6683 0.0132414 0.00252769 -0.00907965
294 2 1 42.9063 9.18343 41.2008 0.000240226 0.00547924 -0.000325224
2281 9 1 37.9589 5.25133 41.1601 -0.0061816 0.00124463 0.000962057
886 4 1 43.0803 4.41444 37.8518 0.00147213 0.00117484 -0.00581562
981 4 1 41.1748 2.70973 35.7934 -0.002349 -0.00680924 -0.00781255
1346 5 1 41.2732 59.1822 41.7653 -0.00116868 -0.00558318 -0.00559707
1741 7 1 45.5055 1.83061 39.5666 -0.00620037 -0.00365038 0.00208534
778 3 3 46.5124 5.43401 39.8299 -0.000301964 -0.001142 0.00430919
137 1 1 48.0448 4.87658 39.6025 0.00107478 -0.00138424 -8.59476e-05
171 1 4 50.2869 7.79655 41.0282 -0.000587599 0.00435542 -1.44142e-05
598 3 1 51.6723 4.66001 45.4194 0.000188997 0.00439351 0.00428324
1880 7 1 50.4515 4.24149 43.0231 -0.00121066 -0.004051 0.000402496
781 3 1 51.1099 7.2896 41.5781 0.00422035 -0.000177512 0.00281561
286 2 1 48.6883 0.144624 37.52 0.00112543 -0.00743804 -0.0069038
2266 9 1 47.5441 0.591538 37.5043 -0.001365 -0.00721094 -0.00243239
1046 4 3 46.6347 7.73638 36.4567 0.000236366 0.00793864 -0.00459793
58 1 1 45.6418 59.1684 35.4729 -0.00180145 -0.00514589 -0.00967174
1365 5 2 52.7325 12.4365 38.7987 -0.00031882 -0.0219208 -0.0110173
736 3 1 53.4958 6.12886 39.0919 1.12793e-05 0.00505181 -0.00145336
581 3 4 59.3124 4.25335 42.6048 0 0 0
321 2 4 59.9605 4.39382 42.7882 0.00360201 0.000177837 0.00280006
1403 5 2 58.7468 0.925809 45.4778 0.00912827 -0.00368562 0.0149173
1648 6 2 1.02459 10.0668 41.493 0 0 0
2539 10 3 9.77531 15.6946 39.7896 -0.000525369 0.00509586 0.00292436
1654 6 2 19.422 4.64397 52.8465 0.0157315 -0.00824597 0.0181077
2618 10 1 12.9986 9.47366 38.6807 0.00140423 -0.000744216 -0.00508988
1979 8 1 22.5652 9.91844 42.8773 0.00111952 0.00398844 0.00316653
1968 7 2 22.3876 9.09208 38.8437 0.00834434 -0.00339123 -0.000951099
1719 7 1 16.9834 13.9362 42.9602 -0.00516636 4.4835e-05 -0.00030276
2064 8 3 16.4545 4.4464 40.3925 -0.00104005 -0.00760046 -0.00377835
254 1 2 13.9395 11.6494 46.8589 -0.0187299 -0.00163715 0.0110484
1885 7 4 30.1 10.3417 43.1308 0.0015459 0.00398717 0.00143728
1494 6 1 25.6348 14.9353 43.3205 -0.00134092 0.00355633 0.000967052
2322 9 1 28.6628 7.48021 37.2876 0.000434179 -0.00269128 -0.00404724
7 1 1 24.5533 5.93273 38.7916 -0.00094687 -0.00639043 -0.00125884
54 1 1 25.7667 14.1265 38.7397 -0.00185503 0.000251551 -0.00543533
202 1 1 27.6396 12.1917 43.6209 -0.00413236 0.000926645 0.00130717
1712 7 1 22.3022 14.7377 38.2265 -0.00787945 -2.56072e-07 -0.000485669
2810 10 2 12.0009 8.09312 36.3621 -0.0275276 -0.00126055 -0.00710889
1623 6 4 28.4122 13.1202 41.7539 0.00512193 0.00768337 -0.00612418
468 2 1 32.9569 12.6179 45.3127 -0.000134311 0.00521219 0.00135117
678 3 1 38.5165 14.9438 36.6544 0.00630164 5.06552e-05 -0.00409008
1562 6 1 38.6376 14.0269 37.4117 0.00987713 -0.0016431 -0.00305469
1069 4 2 36.6892 8.59757 31.3378 0.00894142 -0.00082249 -0.0139315
1691 6 2 30.6536 5.11206 38.7708 -0.00724812 -0.00580877 -0.00965657
1067 4 1 42.5526 12.5209 39.045 -0.000855437 0.00830589 0.000783602
283 2 3 42.0634 12.9771 38.6256 0.000458435 0.00588341 -0.000923542
108 1 1 38.3759 9.30272 36.9205 4.40936e-05 -0.00158483 -0.00152315
56 1 1 39.1594 4.21421 42.3465 -0.000597464 -0.00685118 0.000900846
2450 9 1 44.0272 6.75808 35.2038 0.00298022 -0.00380499 -0.00555422
2297 9 1 37.9804 5.72735 42.1061 -0.00195539 -0.0040026 -0.00222815
2053 8 1 47.382 12.4983 37.1913 0.00535495 -0.00129808 -0.00602974
2393 9 1 41.0095 15.6487 42.3698 -0.00780356 0.00219548 0.00319648
695 3 1 43.303 6.50246 44.2051 -0.00251627 -0.00503545 -0.000299037
2417 9 1 44.7508 11.5142 39.8678 0.00506566 0.00707051 -0.00629777
1111 4 2 46.3802 5.08021 41.9048 -0.00701565 -0.0136215 0.00781887
2765 10 2 44.6567 4.91107 55.5459 -0.00994205 -0.00646143 0.0218218
357 2 1 45.2202 7.99656 41.0789 -0.00756216 -0.000223211 0.000201537
165 1 1 45.7103 14.041 40.6435 -0.00215985 0.000705985 0.000712679
2614 10 1 51.6857 11.3178 39.653 -0.00267477 -0.00243713 -0.00116441
683 3 1 42.8159 8.39382 44.0705 -0.00557361 -0.00152692 0.000302507
330 2 1 51.6881 12.8903 40.7298 -0.00499925 -0.0054496 -0.00421362
2395 9 1 47.6379 10.5585 42.1161 -0.00231071 -0.00887487 0.00101367
840 3 2 45.3094 11.8281 35.1388 -0.0014401 -0.00631054 -0.0083186
2155 8 1 45.4019 13.9503 44.5995 -0.00261847 -0.00132496 -0.00070311
1912 7 1 51.6113 12.7244 44.8918 0.00334481 0.00615176 0.000463864
2102 8 1 54.4055 12.7328 39.2961 -0.00440685 -0.00253545 -0.00298288
381 2 1 52.8846 11.4616 45.0445 0.00131395 -0.00048792 0.00291892
748 3 4 53.81 8.68625 41.4053 -0.00101277 -0.00151726 0.000238254
892 4 3 59.1608 10.6337 44.33 0 0 0
147 1 3 55.4283 14.3915 40.7073 -0.00278173 -0.000437299 0.00247489
327 2 1 57.2482 13.0119 42.8793 0 0 0
577 3 1 57.1791 10.0481 43.0406 0 0 0
1402 5 2 57.0913 13.1731 41.0622 0 0 0
2305 9 1 56.7192 14.6742 40.7303 0.00242611 0.000319881 -0.000421197
2625 10 1 56.1723 10.2938 43.5611 -0.000418642 0.00710476 0.00434854
493 2 1 52.8148 15.2946 40.7441 -0.00383348 -0.00384552 -0.00148874
643 3 1 2.0668 16.1972 44.5643 0 0 0
1937 7 2 1.77328 21.4698 38.138 0 0 0
621 3 1 0.192656 20.0999 44.1103 0 0 0
758 3 1 1.89294 16.9795 42.4329 0 0 0
397 2 1 9.8812 19.6697 44.6842 -0.00228048 -0.000423428 -0.00026288
612 3 1 12.219 15.8502 42.447 -0.0044414 5.56153e-05 0.0011325
2061 8 1 9.01905 20.7578 42.1123 0.000854897 -0.00021035 -0.00248517
2286 9 4 27.1751 19.5504 40.3628 0.00460435 -0.00228843 0.00510212
1789 7 1 26.5395 19.7066 38.9604 -0.00545401 -0.00113136 0.00183587
1482 6 4 26.0674 22.2439 40.4013 -0.000550356 0.0103727 0.000933027
858 4 1 24.3964 21.8582 38.8512 -0.00184206 0.00894752 -0.00521438
1904 7 1 23.2349 23.722 41.8877 5.72883e-05 0.0058979 0.00204797
927 4 3 21.9732 22.8596 34.6343 -0.00130038 0.00478596 -0.00606077
838 3 2 29.3881 25.1934 40.7915 -0.0166269 0.00979934 0.00550601
2429 9 1 31.0325 24.4415 37.1397 0.00136805 0.00507435 -0.00547993
601 3 3 31.5123 23.3446 48.1489 -0.00259861 0.00719758 0.00710589
2674 10 1 38.2058 15.244 44.8219 0.00641019 -0.00176799 0.00387845
416 2 3 33.6152 22.21 34.996 -0.00412646 0.00147691 -0.00561595
1577 6 1 33.1693 26.0468 41.2053 0.00617765 0.0117812 -0.00617458
729 3 1 39.4355 20.982 35.6979 0.00810901 0.000365247 -0.0109599
2112 8 4 33.73 21.9537 42.2598 0.0016428 0.000487269 -0.00340862
268 1 2 24.6968 15.6593 32.7273 -0.02272 -0.00572262 -0.0233772
2302 9 3 40.2161 21.8149 38.2375 -0.00207601 0.00402957 0.000489791
208 1 1 45.0234 21.2834 46.6367 0.00186444 0.000769544 0.00552467
24 1 3 43.1293 18.1056 37.2326 0.000523229 0.00127116 -0.000580338
241 1 2 39.2856 18.8164 31 -0.00967245 -0.00271467 -0.0134174
1474 6 1 42.2959 21.4535 39.3536 0.00117849 -0.00140325 0.00120966
2497 9 2 48.7757 24.6002 49.7821 -0.00326808 0.00747965 0.0173309
1160 5 1 51.6211 18.7671 39.6538 -0.00168349 0.00332845 -0.000283999
91 1 1 46.3592 19.8936 42.073 0.000275616 -0.00066434 -0.000585302
1042 4 1 47.3681 21.3143 44.9057 -0.00680387 -0.00185808 0.00337089
2472 9 2 53.6215 19.55 44.0373 0.0201619 0.00122318 0.0127928
2358 9 1 52.2634 18.4251 42.997 0.00180596 -0.00352895 0.000483287
354 2 4 53.1235 21.102 41.5716 0.00287794 0.00562028 0.00233385
2735 10 1 54.5282 14.773 41.5017 -0.00145987 -0.000801584 0.000723198
1435 6 1 59.0201 16.8745 42.1368 0.000980517 -0.000638314 0.000332798
907 4 4 59.8584 15.602 37.839 0.00289157 -0.00132069 -0.00353724
353 2 1 53.3198 17.2082 41.6677 -0.00160743 -0.00104405 0.000485999
12 1 1 59.5394 20.3302 40.1135 0.00441573 0.00235437 -0.00497569
1095 4 2 59.1007 16.1735 41.4651 0 0 0
2020 8 3 55.8827 18.0531 42.6491 0.00214977 0.00388794 0.00170028
81 1 3 0.187421 15.2369 43.9381 0.00228261 -0.00309622 0.00169342
2005 8 1 3.54426 26.4635 38.6381 -0.0115216 0.00186957 0.00926885
885 4 4 10.3617 21.335 40.3945 0.00153636 -0.00464018 -0.00320658
1293 5 1 14.1462 28.8728 37.2701 0.00354584 0.00346714 -0.00933269
914 4 3 11.0817 21.874 40.4432 -0.00181893 -0.0076513 -0.00546658
266 1 2 10.8153 31.0163 36.3998 0.0166841 -0.00169502 0.00723015
2170 8 1 15.4867 30.458 43.0911 0.000443766 0.001286 0.00354991
2566 10 4 15.4118 25.2531 42.3612 0.000683181 0.000379612 -0.00385128
2786 10 2 18.5992 18.3626 26.0022 -0.000926875 -0.0118156 -0.0290017
875 4 1 23.9197 25.9773 38.3498 -0.00419739 0.0036745 -0.000416504
378 2 4 28.6944 29.1471 42.5382 0.00524933 0.00299282 -0.000158151
1471 6 4 25.5175 22.8749 42.3543 -0.000318552 -0.00111711 -0.00429267
2804 10 2 40.7469 31.9843 43.8926 0.0103516 0.0174799 0.0114823
325 2 1 29.7886 28.6724 43.6533 -0.00245694 0.000736539 0.00669373
1943 7 2 34.3249 30.7971 40.1753 -0.00284027 0.00898121 -0.00215879
1411 6 3 34.7469 22.5 35.9279 -0.00123641 -0.0021985 -0.00399981
2273 9 4 34.073 23.2267 40.191 0.0012007 -0.00265623 -0.0045933
1772 7 1 30.6758 26.7955 44.073 -0.00454689 0.00200907 -0.00126348
1012 4 1 36.2701 25.2245 43.8834 -0.00250609 -0.0027938 -0.00204915
797 3 2 32.3359 32.0346 42.6999 -0.0114441 0.00830333 0.00990051
811 3 2 38.8254 33.5899 44.5784 -0.0122028 0.0135216 7.63239e-05
80 1 1 43.0748 31.3297 44.5626 -0.0013781 0.00603635 0.00192157
2730 10 4 43.7385 30.2657 44.9574 0.00312625 0.00189377 0.00366144
1777 7 1 41.3427 26.7553 44.1309 0.00192677 0.00109463 0.000253591
2592 10 1 40.3118 26.0895 40.1275 0.00293378 -0.00430885 0.00132835
2214 8 2 45.4653 25.076 36.4233 0.00611358 -0.00590248 -0.00492105
1425 6 3 37.9025 27.4085 43.872 -0.00181677 -0.00277607 0.00229042
1120 4 2 51.3764 23.4065 40.2346 0.0113557 0.010927 0.00819802
2783 10 2 53.2101 8.4452 30.7363 0.00695521 -0.00834618 -0.00966938
2609 10 1 48.6982 17.3421 39.4877 0.00272722 -0.0111169 0.00158487
439 2 1 46.5724 31.229 43.4354 0.00028374 0.006174 0.00137584
2624 10 1 52.0855 28.7235 38.9908 0.00272918 0.00143221 -0.0029965
1845 7 1 54.8358 23.6987 42.5675 0.00240646 -0.00262736 0.000201179
1289 5 1 55.8364 27.7928 39.6097 0.00021514 -0.00504379 0.0012015
724 3 4 59.0058 22.6548 44.2952 0 0 0
75 1 1 57.2254 23.9881 39.5645 0 0 0
704 3 4 59.4134 25.906 38.4946 0 0 0
674 3 1 57.4307 23.4621 43.3912 0 0 0
649 3 1 59.2324 27.9337 42.7031 0.00312912 0.00317459 -0.00205117
2459 9 1 53.2982 28.5744 40.7563 -0.000242383 -0.00198391 0.000145531
1511 6 1 2.2871 32.3742 42.1551 -0.000801678 -0.00265298 0.00565552
2185 8 1 1.41645 34.9692 41.3811 0 0 0
392 2 1 0.707117 35.8248 41.6234 -0.00274545 -0.000181861 0.000430739
681 3 1 11.9392 39.848 40.8975 -0.00415288 0.0074811 0.00491305
1473 6 1 7.75469 32.3844 39.6924 0.00125629 -0.00377046 -0.00808371
813 3 2 15.9271 37.3376 52.0189 0.00912649 0.0112119 0.0179637
1503 6 1 9.20142 29.4553 38.0822 -0.00356696 -0.00123807 0.000369416
1364 5 2 12.3186 35.2596 44.1617 0.02072 0.00187161 0.0208142
1297 5 3 20.3347 38.0744 38.4985 0.00265384 0.00742283 0.00187732
2095 8 1 22.5717 35.2412 41.6052 0.00041187 -0.00462718 0.00320232
282 1 2 18.7613 24.0159 45.9256 -0.0206883 -0.0198933 0.0103168
1534 6 1 28.7504 39.4079 36.7769 0.00554136 0.00669278 -0.00192406
2287 9 1 23.8599 34.744 36.8999 -0.000737811 -0.001126 -0.00471551
342 2 4 26.3018 32.5257 44.8174 -0.00339377 0.00062283 0.000114637
530 2 2 18.7183 39.0278 38.503 -0.0214676 0.00614977 -0.00233453
2501 9 2 37.4191 42.2885 55.4445 0.00230241 0.0122161 0.0282007
1445 6 1 33.2908 30.9149 38.9798 0.000340377 -0.00698721 0.00234228
915 4 1 30.0051 30.425 41.5704 6.91368e-06 -0.000752201 0.000536238
1151 5 1 30.8718 36.1048 40.9163 -0.000983919 0.00379318 5.83286e-05
1690 6 2 41.3942 39.7023 55.3799 -0.000615884 0.00535413 0.0217403
446 2 1 43.6141 33.372 46.0095 -0.00155903 0.00539801 0.00828892
2308 9 4 39.7208 30.8857 40.788 0.000831784 -0.000582326 0.0017644
2057 8 4 36.4647 34.0078 40.2351 -0.00312562 -0.000751529 0.00157913
2682 10 1 42.6814 28.4902 39.1209 0.00280794 -0.00404068 -0.00382391
2486 9 2 51.2557 30.6366 38.0792 -0.00520758 0.00130399 -0.0106937
716 3 1 42.344 34.3282 38.7168 -0.0006095 -0.00491848 -0.00558782
2782 10 2 52.3692 39.0587 42.7086 0.0151453 0.0211783 0.0238179
1493 6 4 51.97 32.0934 41.1025 0.0019659 -0.000339718 2.17379e-06
764 3 3 49.0027 41.209 43.7376 -0.000525208 0.00846966 -0.000598192
597 3 1 48.2447 31.8604 39.1656 -0.00360439 0.000753109 -0.000994122
1855 7 1 51.4329 33.0642 42.1775 0.0005149 -0.00100909 0.00515345
196 1 1 44.0804 35.7901 41.2319 -0.00739822 0.00400918 0.00238953
1021 4 1 51.6945 32.713 43.082 -0.00131443 -0.00429932 0.00377988
49 1 1 46.4785 33.1004 45.1862 4.09479e-05 -0.00371596 0.00110572
614 3 4 49.8549 36.1685 38.2664 -0.00290835 -0.00160527 -0.00427595
1387 5 2 45.9755 34.7354 31.7394 0.000748446 0.00507764 -0.0183282
1373 5 2 42.3979 31.4851 39.1973 -0.00741823 -0.0114751 -0.00745174
1725 7 1 54.7785 29.9054 41.1907 0.00552228 0.000990256 -0.0021544
448 2 1 57.0587 30.5013 40.8457 0 0 0
765 3 1 57.1039 30.7598 39.4036 0 0 0
1715 7 1 59.6588 35.6655 41.5287 0 0 0
344 2 1 58.1842 34.6087 39.5381 0 0 0
668 3 4 57.1884 36.0946 43.1908 0 0 0
2533 9 2 57.1615 32.7878 43.1117 0 0 0
1063 4 1 53.4589 32.6601 42.7732 0.0057611 0.00395657 -0.00372855
1215 5 1 53.8299 32.2638 38.1783 -0.0024059 -0.00162324 -0.00163669
929 4 4 55.8548 34.9906 43.095 0.00547953 0.00406675 -0.00138306
418 2 1 5.80756 40.4924 40.1467 0.0105092 0.00366599 -0.000648399
657 3 1 1.21898 40.4075 39.071 0.00203823 -0.00137006 -0.000302642
1260 5 1 7.24601 41.0233 42.486 0.00214421 0.00839526 0.00591547
1583 6 1 9.78928 41.4712 39.8151 -0.00293717 0.00176472 0.00188621
349 2 1 9.36141 39.2405 43.1217 0.00763138 -0.00588968 -0.00119629
852 4 4 9.32512 35.8549 44.2121 0.00192732 0.00196783 0.00952744
369 2 1 11.0208 37.8467 38.057 -0.00290762 -0.00548653 -0.000924903
1077 4 2 8.06722 41.6571 49.6513 -0.0140968 -0.0025607 -0.00691277
1746 7 1 18.5778 39.891 44.007 -0.000690717 -0.0051059 0.0056446
1921 7 2 20.4845 38.6208 39.9985 0.00396485 -0.00151671 0.000925805
2338 9 4 17.9734 42.5766 41.603 -0.000137364 0.000518464 -0.0029612
1737 7 1 18.2454 39.1555 35.515 0.0036387 -0.00506575 -0.0114531
458 2 1 23.1584 35.2132 38.9359 -0.00146306 -0.00478528 0.00107109
2144 8 4 28.3996 36.5588 35.7836 0.00202896 -0.00299472 -0.00417174
1552 6 1 23.79 45.0406 37.694 -0.0014179 0.00112166 -0.0045688
1244 5 4 27.3416 43.5625 40.3336 -0.00245994 -9.45455e-05 0.000830762
475 2 4 28.2294 43.8878 39.5488 0.0043898 0.0030233 -0.00531238
2515 9 2 36.242 46.5487 23.8836 0.0166725 0.00376887 -0.03181
1345 5 1 35.9209 40.2965 39.3421 0.0066598 0.000437599 0.00229993
1110 4 2 52.649 39.5419 51.9807 -0.0109507 -0.0134634 0.0171952
2332 9 1 34.9457 41.2991 35.6412 0.00154777 0.00662941 -0.00396498
1504 6 4 34.4155 44.1428 39.7064 -0.000952249 0.000413276 0.000418542
705 3 1 31.0279 39.8595 45.54 -0.00376638 -0.000198909 0.00199638
2458 9 1 28.7214 42.8714 43.3679 -0.00505567 -0.00109407 0.000382555
925 4 1 33.0485 44.964 42.7107 -0.00316441 0.000465604 -0.00224778
1801 7 1 35.1805 44.6962 38.2364 -0.00316279 0.000239984 -0.000857562
1683 6 2 31.5841 39.443 25.8237 -0.00410786 -0.000855692 -0.0327
2219 8 2 29.059 41.3495 46.0338 -0.0206375 0.00385509 0.0138896
2552 10 1 43.8486 42.0821 40.567 0.00327016 0.00204931 0.0026823
1614 6 4 42.3414 41.5454 46.0072 -0.00123338 0.000793355 0.00301363
1413 6 1 39.254 37.6964 44.2636 -0.00213858 -0.00425758 0.000561216
2021 8 1 39.9224 38.5755 41.5347 -0.00577893 -0.00106776 6.55465e-06
275 1 2 47.0528 53.0711 42.437 -0.00408931 0.0246473 0.00401237
1992 8 1 51.5121 37.2124 38.6455 0.000101507 0.00267248 -0.00268161
984 4 4 47.5356 38.4717 44.4869 -0.00366311 -0.00431346 0.00246908
2412 9 3 47.3889 38.8001 44.418 -0.00235954 0.000654054 0.000391781
160 1 4 50.6037 43.5369 41.4907 -0.00372647 0.00193222 0.00128826
2342 9 1 45.69 44.6154 42.942 -0.00487924 0.0013756 0.00215466
1383 5 2 53.8126 41.4229 41.1463 -0.0137476 0.00252638 0.0131365
1249 5 1 52.5287 41.903 38.9984 0.00289005 -0.00118188 -0.00361653
619 3 1 53.7491 43.0686 37.1259 -0.00342251 -0.00129096 -0.00264008
655 3 1 53.1241 38.4979 42.455 0.00436162 -0.00418611 -0.000166821
1516 6 1 59.0043 38.6099 39.7297 0 0 0
1343 5 4 55.8168 41.4652 38.3384 0.000231831 -0.00056001 0.00399117
1634 6 2 57.2821 47.1506 44.5615 0.0123853 -0.000758724 0.00127116
564 2 2 24.7737 45.1245 43.8568 0.0453137 -0.00798563 0.00605992
964 4 4 0.511772 47.1807 38.9016 0 0 0
443 2 1 0.491441 46.5048 43.0251 0 0 0
1232 5 4 1.77264 49.3338 44.6478 0 0 0
1204 5 1 0.18258 51.1464 39.8858 0 0 0
1908 7 2 1.51441 47.8743 43.3947 0 0 0
410 2 1 0.97304 47.9364 41.8499 -0.0150244 0.000491356 -0.00700397
339 2 1 20.6497 43.6334 41.9522 0.0127333 -0.00867883 0.00723964
613 3 1 11.152 47.6033 44.2154 -0.0047091 -0.00291747 0.00734164
1813 7 1 11.4369 51.0099 39.1594 -0.000946711 0.00315309 0.000889344
379 2 1 11.2006 47.8793 38.2983 -0.00247864 0.00152623 -0.00124287
2233 8 2 13.2631 1.73078 37.5765 0.00212041 0.0320643 -0.0124527
2294 9 4 11.3729 54.5744 42.5602 -0.00218191 0.00703354 -0.00400078
1292 5 1 13.8599 46.5216 40.2771 0.00113989 -0.000448969 -0.00755925
1076 4 2 36.0587 52.0942 49.644 0.0314791 0.0133175 0.0174525
2461 9 4 19.7935 50.7096 46.3833 0.000658953 0.00607706 0.00751193
2141 8 1 19.003 53.6496 47.8018 0.0011531 0.00461826 0.00897918
2438 9 4 21.2675 46.3808 41.1863 0.000471951 0.000915281 -0.00490617
2199 8 2 29.5331 3.76289 22.8027 0.0231723 0.0314583 -0.033886
2111 8 1 22.4575 46.7886 40.4474 -0.004525 -0.000507443 0.00425673
2590 10 4 23.7947 48.2233 44.1159 0.00152907 0.00374353 0.00177789
363 2 3 29.1027 45.7086 42.4564 -0.00140633 0.00119876 -0.000294863
2186 8 1 29.527 48.4908 44.5601 0.0017854 0.00224588 0.00415251
1000 4 1 23.4832 43.0347 44.0733 -0.000412581 -0.00580883 0.00181703
18 1 1 28.5215 53.5059 43.1383 0.00643799 0.00345298 -0.00200283
2605 10 1 32.2734 46.6717 45.986 0.00141534 -0.00209333 0.0021141
376 2 4 33.5952 52.9082 38.7917 -0.00267244 0.00267953 -0.00152782
2368 9 3 27.33 46.1015 39.3217 -0.00626052 -0.00723844 0.000997342
808 3 2 35.2674 44.5176 49.097 -0.0130731 -0.0058192 0.0221894
2463 9 1 45.1979 51.7302 41.684 0.00592264 0.00928011 0.00466579
888 4 1 39.8635 44.9813 39.6178 -0.00288418 -0.00120089 0.00163974
1693 7 3 44.81 48.5001 37.5253 0.0016076 -0.00358599 -0.00483537
1879 7 1 41.4214 47.1581 38.9831 -0.00283567 -0.00363356 -0.00274882
1750 7 1 51.3908 45.4636 41.6154 0.00333127 -0.00169866 -0.000478666
1180 5 4 52.2554 48.1917 41.9258 0.00426314 0.00612539 -0.00039359
1227 5 1 48.0315 43.571 40.2213 -0.00025655 -0.0055065 0.000227933
1566 6 3 46.3775 48.7528 39.4953 -0.00165792 -0.00297512 -0.00328632
902 4 1 51.8212 52.7832 40.3175 0.00597318 0.00768272 -0.00220737
1396 5 2 43.7814 42.9774 42.549 -0.00339392 -0.010968 -0.000435547
1827 7 1 47.5569 48.7251 37.1038 -0.00227052 -0.00487144 -0.000827326
1495 6 1 59.1419 50.6448 40.231 0.000718712 0.00344524 0.00400048
1241 5 1 55.8802 45.0018 36.5057 0.00293833 0.00112373 -0.00060219
2464 9 1 58.0171 48.9897 39.2946 0.0055117 0.00789182 -0.00471091
1302 5 1 55.5743 45.3973 40.445 -0.00173023 -0.00338369 -0.0028803
1342 5 3 53.9717 49.4165 44.3826 0.000621775 0.00206039 0.00130346
2525 9 2 55.2825 45.1079 37.7335 0.00809973 0.00578718 -0.0236362
2200 8 2 56.8101 53.4179 38.2012 0.0138124 -0.00461012 -0.00563405
1187 5 3 56.1224 52.6014 43.7383 -0.00178785 0.00115653 0.00258855
226 1 2 1.12038 58.0244 38.2396 0 0 0
583 3 1 0.505363 56.0555 41.4608 0 0 0
1137 5 1 0.145135 54.6386 43.7489 0 0 0
53 1 1 6.11432 55.968 44.0962 0.00583054 -0.00881065 -0.000765987
204 1 4 6.17909 58.9356 41.6646 -0.0113157 -0.00105026 0.00194228
1374 5 2 57.8857 1.15028 35.3896 -0.00879509 0.00610981 -0.0165346
1259 5 1 15.5074 56.2217 41.2197 0.00437719 -0.00410885 0.00465812
2503 9 2 30.9206 53.4038 42.5708 0.034601 -0.00361341 0.00723695
956 4 1 10.7237 50.7129 43.5571 0.00355756 -0.00418518 -0.00145119
2686 10 4 15.3592 59.7046 37.9096 0.00122168 0.0010485 -0.00433556
2510 9 2 13.0765 3.65218 32.1347 0.00544141 0.0107167 -0.0212943
735 3 4 20.9761 49.133 44.9198 0.00603996 -0.0124779 0.00332697
1326 5 1 14.4462 54.1237 40.5826 -0.00310908 0.000147673 0.00127546
710 3 1 25.386 58.1917 45.3785 -0.0024964 0.00965647 0.000855848
421 2 1 24.3204 54.2766 42.4274 -0.0037763 0.00272292 0.000144065
1507 6 1 32.3572 1.94805 39.2326 0.00576651 0.00444196 5.27337e-05
285 2 1 23.7959 2.95217 43.0613 -0.0044583 0.00660568 -0.00177272
261 1 2 33.3574 45.5724 51.6164 -0.00296217 -0.0163549 0.01942
753 3 1 27.8678 58.5887 38.7504 -0.00798753 -0.00216138 -1.78911e-05
1053 4 1 36.1567 2.21315 39.0708 0.0107817 0.00905645 -7.30087e-05
1630 6 1 34.7055 51.4601 38.3427 -0.00149825 -0.00549609 -0.00394893
2658 10 1 47.2226 54.9928 42.2194 0.00989341 -0.00777905 0.00442415
1129 5 3 38.1948 56.2278 44.5631 -0.00127722 -0.00601422 0.000733207
1891 7 1 47.8106 58.3753 40.988 0.00610475 0.00174383 -0.0023991
1486 6 1 37.8261 53.1014 36.8159 -0.0024076 0.000500071 -0.00720574
2593 10 1 43.817 52.3517 39.8725 -0.00100726 -0.00220328 -0.00442351
2076 8 1 51.6211 52.0344 41.0075 0.00314404 -3.3984e-05 0.00508437
894 4 1 52.1237 53.9645 42.426 0.00157233 0.00109699 0.00289996
400 2 4 50.1598 0.86422 40.6904 -0.00111402 0.00441119 -0.000345635
279 1 2 43.2911 52.6984 38.4233 -0.0173587 -0.00335733 -0.00372871
300 2 1 52.4325 0.436493 41.573 0.00155149 0.00163804 0.00322722
2151 8 1 41.9572 57.0169 38.8691 -0.00703129 -0.00417259 -0.00641036
802 3 2 51.5786 5.24342 38.7795 0.0195926 0.0272984 -0.00712895
2276 9 1 49.3414 55.8195 43.81 -0.00155962 -0.000704942 -0.00240339
2202 8 2 0.0405075 50.5669 32.2481 0.00690018 -0.0128236 -0.0121291
1166 5 4 1.31029 57.6968 38.595 0.00320433 -0.00189029 -0.00311419
470 2 1 53.8347 58.2031 39.9677 0.000551745 -0.00188133 -0.00560821
2254 8 2 57.7793 57.1031 43.2616 0 0 0
747 3 1 57.508 59.5107 38.8005 0 0 0
574 3 1 1.64818 2.6524 50.6654 0 0 0
809 3 2 0.361214 6.06129 46.9851 0 0 0
2582 10 1 58.0787 9.14304 49.6665 -0.00568558 0.00984121 0.00122215
1963 7 2 2.71977 3.19514 49.3068 -0.0135806 0.0212653 0.0150374
648 3 1 7.7442 58.5525 45.5777 0.00635109 -0.00322674 0.0062223
2473 9 1 59.4655 4.77273 48.4155 -0.00250922 -0.00312395 -0.00343915
1974 7 2 56.8046 14.9754 54.7115 -0.0185824 0.0207036 0.0149393
1104 4 2 14.5711 3.28372 2.78163 0.00866641 -0.00414424 0.0253997
8 1 4 10.8219 2.58944 42.8235 0.00145086 0.00201607 -0.00512534
173 1 1 10.6862 3.57722 49.3132 0.000862663 0.000290862 0.00105906
2477 9 1 12.74 5.13547 43.1832 -0.000253398 0.000820547 -0.00386388
188 1 1 14.7311 3.10309 51.1666 0.00285376 -0.00250301 -0.00070949
2282 9 1 21.6217 3.59887 50.9559 -0.000672132 0.00173509 0.00248459
2224 8 2 20.6838 54.8745 52.9097 0.00271535 -0.0113546 0.002271
854 4 4 21.4712 4.4945 46.2613 0.00297786 0.00870746 -0.000143619
509 2 2 23.9965 13.0486 46.7085 -0.0100251 0.0120748 -0.00346548
728 3 1 22.8166 2.67951 49.7423 -0.00213254 0.00437015 -0.00430387
573 3 1 32.929 56.5515 48.2955 -0.0023286 -0.00765675 0.00576705
1762 7 1 28.7776 2.2888 53.7235 -0.00568789 0.000284949 0.00488379
1064 4 1 34.4375 59.5088 46.9879 -0.00144795 -0.00500812 -0.00452621
1427 6 4 34.4168 2.15657 51.015 -0.00258588 0.00442455 0.00428005
2078 8 4 41.1265 1.9021 48.3637 0.00130535 -0.00189089 0.00365877
1294 5 1 42.8501 2.95513 45.8996 0.00133771 -0.00462739 0.00164896
1942 7 2 45.8462 59.478 47.106 0.00252752 -0.0073122 0.0014098
722 3 1 36.5237 2.45756 44.5322 -0.00444352 -0.000529776 -0.0043932
664 3 1 41.6172 3.54905 43.4404 -0.0023059 -0.00139952 -0.00332583
632 3 3 34.4186 59.3257 44.936 -0.00734252 -0.00401388 -0.00148653
733 3 3 37.7337 5.77507 49.1572 -0.000336031 -0.00138009 0.00145922
1201 5 1 36.1385 9.2492 53.6483 -0.00423635 0.00664974 0.00247363
1156 5 4 36.5024 4.66422 51.3249 -0.0025147 -0.00287808 0.000790043
1716 7 3 43.0345 2.37278 46.912 -0.00192183 0.00117333 -0.00573492
715 3 1 40.2339 4.31255 49.2598 -0.000963807 0.00425525 -0.00444932
1109 4 2 33.016 7.23266 38.6917 -0.0149926 0.00118858 -0.0154585
1139 5 1 49.1044 6.86485 46.8756 0.00661189 0.00260683 0.000551914
2413 9 1 51.8632 0.97092 47.7529 0.00344839 0.00133766 0.00294332
64 1 1 49.6577 2.34075 53.4374 -0.000791726 -0.0015877 0.00206908
119 1 1 46.7781 1.39511 51.3198 -0.00372615 -0.00591693 -0.001209
905 4 3 46.3863 6.60871 48.956 0.00205593 0.00837497 -0.004668
1662 6 2 57.2609 5.64585 46.9109 0.00956924 0.000503941 -0.0082972
2072 8 1 54.0522 3.818 49.6731 0.000129273 -0.00689679 0.000583647
796 3 2 53.4981 58.4952 47.3815 0.0069506 -0.00425126 -0.00802217
1363 5 2 57.3144 0.311495 54.6055 -0.0454342 -0.0112445 0.0263728
2240 8 2 57.0385 6.22163 48.9251 0 0 0
1877 7 1 57.8266 2.7139 49.6769 0 0 0
1414 6 1 59.0028 3.97085 48.5319 0 0 0
323 2 1 0.110877 2.98427 46.0478 0.00370842 -0.00146265 -0.00464442
1794 7 1 55.7716 5.60464 51.9418 1.9114e-05 0.00340715 -0.000619016
592 3 4 1.25794 12.1091 48.9928 0 0 0
768 3 4 0.598186 14.8812 48.8194 0 0 0
157 1 1 0.605575 10.7399 44.3547 -0.00112526 -0.00628772 -0.00741479
759 3 1 15.2542 14.0095 51.7324 0.00390107 0.00867869 0.00285149
1035 4 1 9.1939 9.3969 53.8809 0.00571339 0.00121485 0.00630565
2522 9 2 29.4069 10.9303 51.7673 0.0322343 0.00530454 0.00251452
103 1 3 9.0449 10.1521 53.3321 0.00318482 -0.00161671 0.00282436
1797 7 4 13.389 12.5495 53.3189 0.00212106 -0.00382222 0.00188881
1966 7 2 10.9566 14.5676 47.0594 0.0101465 0.016113 -0.000278092
231 1 2 13.0223 58.065 50.616 0.0142666 -0.0359897 0.0077195
707 3 1 18.6604 15.3385 46.739 0.00297779 0.00608847 0.00217826
109 1 1 18.8284 17.182 51.1592 0.00310635 0.00528894 0.00729069
341 2 3 18.764 13.5689 50.4077 -0.0033061 0.00439489 0.00123417
2114 8 4 17.1953 16.3955 47.0156 0.000413831 0.00576685 -0.00290784
2107 8 1 21.4949 14.3595 52.9451 0.00058749 -0.00044495 0.00383021
1798 7 1 19.4998 8.98096 42.664 0.00351538 -0.00400248 -0.00671034
2317 9 4 27.3275 10.0822 48.5851 -1.91502e-05 0.00366092 0.00280121
132 1 1 25.7413 14.0009 46.6458 0.00277904 0.0024187 -0.0014047
426 2 1 28.2243 11.665 47.2928 -0.00144687 -0.0015158 -0.00501022
1014 4 1 25.6092 10.356 52.6273 -0.00452066 0.00274356 0.00123789
494 2 1 26.635 15.515 47.8591 -0.0067618 0.00591746 0.000945092
447 2 1 38.0636 7.74848 46.3138 0.00757015 -0.00335451 0.00268813
419 2 1 33.3361 5.41937 44.7162 0.0052518 -0.00679322 -0.00197781
732 3 1 33.3589 11.5152 45.0395 -0.00291655 0.0033721 -0.00468212
101 1 1 32.8811 17.1774 49.3008 -0.000773395 0.00507064 -0.000256418
478 2 1 31.7374 9.4108 52.861 -9.96637e-05 -0.00102612 0.0015276
2758 10 1 36.2223 10.2757 43.9502 0.00179413 -0.00158253 -0.00253378
642 3 1 39.7095 15.5103 39.9608 0.00908151 0.00743344 -0.0119743
1313 5 1 33.9478 7.73502 48.0351 -0.000499216 -0.0103053 0.00207171
2505 9 2 26.5636 8.81539 50.3969 -0.0184713 -0.00256808 -0.00306525
816 3 2 45.132 6.00811 40.3044 0.0252798 -0.0124825 -0.0123626
730 3 1 44.9585 10.2697 51.6984 0.000212947 0.00509797 0.00185484
288 2 4 40.5685 8.79804 52.9756 -0.00238736 -0.00195235 0.00101416
2401 9 1 34.3486 6.91727 44.3649 -0.00876535 -0.00148024 -0.00225663
394 2 3 40.2333 11.1315 55.1465 -0.00197002 -0.00324512 0.00657381
2259 9 1 41.2105 13.2411 45.1611 -0.0034408 -0.00119357 -0.00186344
331 2 1 38.0012 11.2653 53.5935 -0.00163788 -0.00745977 0.00756125
1541 6 1 41.2297 8.23235 49.8913 -0.00143819 -0.00331968 -0.0032832
2507 9 2 38.5447 2.51622 46.0937 -0.00406956 -0.0167159 -0.0110081
2474 9 1 48.4227 12.0032 53.8373 0.00312587 0.00765342 0.00924493
1496 6 1 51.5421 13.4881 46.0754 0.00211483 -0.00178016 -0.00865086
2731 10 4 48.2023 10.8205 50.967 -0.00471547 0.00667677 0.00101255
2188 8 3 49.7297 10.2183 51.7562 -0.00252055 -0.000116632 -0.000538225
1524 6 1 52.437 8.13299 45.0231 -0.00113644 -0.00158614 -0.000840042
479 2 1 47.0191 11.8597 49.103 -0.00241308 -0.00632666 0.000364064
222 1 2 39.7452 8.11956 52.524 -0.0226581 -0.0126986 0.00578421
578 3 1 54.3015 12.0418 45.5863 0.00140288 -0.0010847 -0.00523988
2231 8 2 4.05094 21.6776 47.4569 0.0325598 0.0183285 0.00276411
315 2 1 57.8307 12.0494 50.6332 0 0 0
1962 7 2 5.69319 20.0071 41.7175 0.00301534 0.00378369 -0.0411893
277 1 2 5.08794 20.9713 47.2534 0.0112671 0.00383261 -0.0223761
1341 5 4 1.66693 17.0094 45.209 0 0 0
66 1 1 2.48048 20.9683 45.7988 0 0 0
2729 10 3 0.537515 21.377 48.8774 0 0 0
2757 10 1 2.40871 22.2559 49.8326 0 0 0
2177 8 1 5.34208 21.377 49.6379 -0.00850946 0.000179647 0.00753991
1354 5 2 18.9182 27.7298 8.25973 0.0144397 0.0241572 0.0470303
818 3 2 9.46293 26.7656 53.3934 -0.00451941 0.012314 0.0122774
2027 8 1 11.3919 15.6284 52.8044 0.00052591 -0.00580593 0.0022913
791 3 2 24.8111 24.2246 56.15 0.00688255 0.0159755 0.00980342
582 3 1 22.4501 23.241 46.1911 0.00936632 0.00396515 -0.00142427
2549 10 1 11.3445 15.9621 51.6336 -0.00906585 -0.00182832 0.00500582
1512 6 1 17.1918 13.2646 47.8149 -0.00462122 -0.00425669 0.00147982
450 2 1 19.8836 17.7429 43.8017 -0.00215274 -0.000747911 -0.00438153
2093 8 1 18.2162 19.0016 50.4531 -0.000126376 -0.00623614 0.00418211
935 4 1 25.2056 20.8495 51.0602 -0.00138594 0.00470315 0.00156432
2280 9 3 28.1355 21.68 43.3414 -1.16532e-05 0.0034222 -0.00421656
2646 10 1 40.1584 23.6428 52.5989 0.00612719 0.00589456 0.00806335
1573 6 1 32.838 23.1425 46.6909 -0.000173404 0.00592505 0.00235619
314 2 1 32.9683 22.149 46.5588 -0.00164397 0.0065273 0.000837183
2000 8 1 37.8077 15.1152 51.7925 0.00320087 -0.00103488 0.00320615
123 1 1 36.2353 20.6042 46.3827 0.000267529 8.99219e-05 -0.000191334
1928 7 2 33.2531 16.3083 54.3644 0.00432251 -0.00970357 0.00811643
755 3 3 29.4782 21.6897 47.9603 -0.00136708 0.00630087 -0.00583777
430 2 4 42.5522 15.2645 47.3297 -0.00288042 -0.00217171 0.0027178
2598 10 4 44.1803 22.1469 52.1768 0.00625016 0.00253925 0.00488025
409 2 4 38.3533 18.9699 51.6523 -0.00347568 0.00270642 0.00164529
211 1 1 39.5997 15.9935 48.3804 0.00105497 -0.00579865 -0.000534156
1195 5 1 43.629 17.1536 46.8437 -0.00202768 -0.00107949 0.0011066
1332 5 4 40.9814 19.9427 53.4978 -0.000631462 -0.00330013 0.00231878
2035 8 4 35.8807 19.833 47.7511 -0.00533449 -0.00458332 -0.000627937
2255 8 2 32.6235 10.7178 43.756 -0.0112276 -0.0176548 -0.00990676
828 3 2 45.2362 11.4182 52.1783 -0.00539937 -0.0144692 0.0119256
2699 10 1 49.5823 22.768 46.9042 -0.00526422 0.00244614 -0.000757313
1757 7 1 52.2695 23.0219 48.4771 0.00300339 -0.00574393 0.00147492
246 1 2 40.0134 18.0382 56.2008 -0.0108816 0.000789348 0.00792527
1914 7 2 55.344 24.3155 47.2463 0.00247463 0.00656771 -0.0100523
68 1 3 46.9744 18.9903 48.5405 0.000138338 -0.00606517 0.00116925
2726 10 1 52.9064 15.1733 53.4925 -0.00123268 -0.00483886 0.00157285
706 3 1 53.1295 14.33 48.1328 -0.00176569 -0.00176355 -0.00325646
1933 7 2 56.3537 17.7982 49.7376 0.00812038 -0.0111269 0.00457635
30 1 4 0.701272 15.882 50.6597 0.00615589 -0.000114901 -0.000188908
618 3 1 53.8322 16.1479 47.7967 0.00261881 -0.00122987 -0.000976091
1767 7 1 56.4909 19.4084 52.4076 -0.00063674 -0.000680048 0.00163573
1492 6 4 4.74064 23.8924 45.6428 -0.00721554 0.00124992 0.000415008
1613 6 1 2.24153 24.3723 47.6531 0 0 0
646 3 4 1.04342 26.9623 47.5199 0 0 0
312 2 4 0.729703 24.2545 47.2596 0 0 0
714 3 1 0.900365 27.4001 50.727 0 0 0
697 3 1 0.808402 27.243 47.8342 0 0 0
831 3 2 22.5143 40.8639 47.612 0.0233735 0.0354505 -0.00129705
1431 6 1 9.85075 28.5856 48.7426 0.00998612 0.00340257 0.0044949
1505 6 1 8.37413 25.4262 47.2629 0.00221361 -0.000820121 0.00875478
352 2 1 7.55043 28.5507 49.8986 0.00065127 0.00706037 0.00959511
1635 6 2 9.86001 28.9593 38.7605 -0.00986646 0.010139 -0.0168606
734 3 4 22.2864 27.594 46.724 0.00395 0.00428245 0.00289422
2542 10 1 20.309 29.7069 47.9279 0.000593303 0.000615693 0.00374999
189 1 1 16.4725 32.2189 48.4682 -0.00114705 0.00755689 0.000657125
1449 6 4 14.2339 32.4039 50.9016 -0.00160271 0.00549689 0.00350386
1840 7 4 22.3159 30.7501 47.5785 0.00650638 0.00604154 -0.00438386
2482 9 2 31.5024 17.0686 53.6601 0.0117424 -0.0169897 0.0167781
2011 8 3 34.7128 27.0096 54.4025 0.00289798 0.000243963 0.0148857
1159 5 1 30.2841 22.4241 47.985 -0.00356994 -0.00160161 0.00499809
1340 5 1 33.6505 24.5153 49.5611 -0.00187685 0.00278023 0.00197311
841 3 2 28.9298 25.5957 53.6752 -0.00871536 -0.00662634 0.00621521
2778 10 2 52.7641 19.2994 1.77124 0.00200106 -0.00519165 -0.0198353
1272 5 1 38.0673 25.5888 47.3224 -0.00323544 0.00611829 0.00399446
1407 5 2 43.208 26.2487 59.0413 0.0117314 -0.0062277 0.0193049
2768 10 2 35.222 30.9284 44.6747 -0.00880686 0.00762439 -0.00454982
1766 7 4 46.4723 24.4417 48.9536 0.00686847 0.000947941 -0.000924305
2475 9 1 36.0208 29.5689 46.9478 -0.00357729 -0.000594818 0.0019532
2498 9 2 35.8972 29.6006 54.2061 -0.00768038 -0.000676894 0.00927881
631 3 1 43.9052 28.396 46.5159 -0.00314435 0.00354941 0.00221195
72 1 4 47.904 26.9434 46.7254 -0.00559692 0.0024241 -0.00136447
2796 10 2 45.3515 29.2865 47.1059 -0.00753242 0.00151037 0.00233882
1551 6 1 52.6492 29.2657 49.0707 -0.00254717 -0.00734133 -0.00307487
2245 8 2 44.242 28.5793 53.0214 -0.0255378 -0.00389364 0.0092611
1339 5 1 46.5483 21.1061 51.2544 -0.000571765 -0.00940839 0.00198914
264 1 2 49.7878 28.6656 46.1946 -0.0236885 0.0055262 -0.00525503
1301 5 1 51.1019 29.5922 49.9141 -0.000566667 -0.00169412 -0.00458543
1243 5 1 57.4914 24.4224 44.8457 0.00235097 -0.00349963 -0.00275757
596 3 1 56.5704 22.4883 47.5697 0.00310853 -0.0040443 0.000839371
777 3 4 53.3892 24.0995 47.4649 -0.00148457 0.00465404 0.00142857
510 2 2 1.47486 27.2631 42.7439 0.00360052 -0.00230024 -0.00561377
2481 9 2 58.0349 28.732 52.4725 0 0 0
731 3 1 52.2523 25.5426 51.3848 -0.00074292 -0.00138059 -0.00177731
402 2 1 55.7357 26.26 48.4275 0.000739499 0.00261717 -0.00485877
2801 10 2 56.0385 32.743 45.4463 0.00975549 -0.00174225 0.00731723
2180 8 1 57.6822 23.0472 48.8075 -0.00250104 -0.00126887 -0.00559227
527 2 2 14.3391 33.8023 40.4457 0.0288456 0.00990339 -0.0159507
973 4 4 1.74702 35.674 49.0562 0 0 0
633 3 1 7.4796 29.8673 51.948 -0.000743856 0.010573 0.00385506
1682 6 2 56.7182 33.6308 43.8319 -0.0280496 -0.00068017 -0.0445721
2462 9 1 12.7352 32.7007 46.5546 -6.30783e-05 -0.00783083 0.00173706
144 1 1 10.2501 35.3034 49.6174 -0.00273339 0.00179674 0.00115134
149 1 4 10.7104 31.1127 47.9565 0.00547978 -0.00596257 0.000759737
2243 8 2 5.58831 32.1294 47.0993 0.0344104 0.0190118 -0.0293146
1527 6 1 12.9343 29.223 49.5857 -0.00361537 -0.0071713 -0.00355523
1639 6 2 20.2192 24.8816 59.6598 0.0069445 -0.0181228 0.0233196
1677 6 2 7.34766 33.9629 49.2026 -0.0412057 -0.00430605 -0.00017814
2433 9 1 15.7973 36.2967 51.1675 0.00161625 -0.000636808 0.00234587
711 3 3 17.48 32.198 51.3981 0.00219864 0.00215781 0.000347173
1739 7 1 22.2528 34.3405 47.8792 0.00226569 0.00233086 -0.00179212
1006 4 4 19.2291 32.5083 47.9428 -0.00061729 -0.000826172 -0.00359442
622 3 1 20.2439 29.3669 53.4229 -0.00357491 -0.00508191 0.00226899
2191 8 1 33.3059 34.5248 53.4676 0.012313 -0.00455051 0.00336375
1442 6 1 24.971 31.7222 52.2102 -0.00476784 -0.00214506 -0.000578961
904 4 1 34.0564 33.0993 51.7275 0.000861642 -0.00106887 0.00170025
1870 7 3 33.6858 30.7067 48.6096 0.00210708 -7.32319e-05 -0.00464344
1795 7 3 36.1731 32.7926 52.0779 -0.00443147 0.00316986 0.001992
1866 7 1 36.0745 29.3569 49.9836 -0.00692791 -0.00300776 0.00385153
2521 9 2 43.6084 31.5437 45.708 0.00240244 -0.00581943 -0.0043671
563 2 2 33.9023 25.7645 54.6964 -0.0113552 -0.0222342 0.00945466
1163 5 1 42.1185 42.8656 49.2751 0.00548049 0.0122308 -0.00620662
1398 5 2 51.3851 34.9698 38.4713 -0.00422582 -0.00791189 -0.0140101
1356 5 2 49.7155 21.5842 48.0295 -0.00425889 -0.0312002 -0.0122346
1661 6 2 42.2725 35.063 51.4768 -0.0174515 -0.000268657 0.000625131
1155 5 1 51.2896 31.0498 47.333 -0.00151775 0.00794994 -0.00658608
1989 8 3 47.8722 35.5567 49.9662 0.00391702 0.000742071 -0.00244288
937 4 1 51.7505 35.6211 47.0952 0.000896336 -0.00377546 0.000621416
874 4 4 49.8669 32.3616 50.41 -0.00521022 -0.00171319 -0.00307876
46 1 3 49.5474 36.1808 50.9757 0.000458544 0.00278618 0.00165297
2019 8 1 50.3005 32.0862 47.8379 -0.00331187 -0.0092946 -0.00218651
1467 6 1 51.1422 29.7367 48.2255 4.20652e-05 0.00118954 -0.00227974
1412 6 1 48.6601 36.8452 47.5647 2.73085e-05 -0.000814284 -0.00287983
1555 6 1 45.5155 34.3048 51.1918 -0.00292547 0.00528094 -0.002547
2759 10 1 57.8778 34.1257 47.6993 -0.00416626 0.00644054 0.00331293
1218 5 3 53.4511 35.3987 49.5779 0.00571397 0.00885053 0.0012984
1875 7 1 56.7431 35.7564 44.9721 0.00540214 -0.00387357 0.000626694
1225 5 1 52.592 32.425 45.672 -0.00304864 -0.00199403 -0.00413002
1133 5 1 59.5023 33.0454 51.4855 0 0 0
2210 8 2 4.76174 42.2757 52.3853 -0.0143094 -0.027611 0.0415267
1087 4 2 0.741058 38.4752 46.2555 0 0 0
662 3 1 0.767883 40.7174 46.9794 0 0 0
1361 5 2 0.585442 44.7153 47.7789 0 0 0
635 3 1 15.7421 44.1626 47.3437 0.00513244 0.0120272 -0.00274773
1728 7 1 7.40481 40.6727 51.4668 -0.00555744 0.000672917 0.00721581
810 3 2 13.97 38.3324 52.0094 0.00473635 -0.000310272 0.000899615
1742 7 4 12.3422 44.4242 46.612 -0.00178438 0.00134042 -6.75953e-05
399 2 1 9.68286 41.5493 45.9984 -0.00845973 -0.00271503 -0.00472666
76 1 1 12.3741 40.5263 48.8385 -0.00317339 0.00183513 -0.00501415
1831 7 1 17.7391 46.6373 50.0546 -0.000254289 0.00812933 0.00716486
1497 6 1 14.0075 46.0332 50.3845 -0.00565608 0.00347934 0.00505818
146 1 1 20.288 44.278 51.8118 0.00236777 0.000699324 0.00120938
920 4 4 19.7432 44.1313 49.0643 -0.000985679 0.000606632 0.00162273
1619 6 1 15.068 44.1735 44.4446 -0.0036126 0.000500248 -0.00318364
1165 5 3 11.978 42.2873 46.7707 -0.00657931 -0.00232604 8.0526e-05
2543 10 1 28.0905 38.8902 49.1203 0.00952397 -0.00334585 0.00123139
2029 8 1 26.6628 47.711 52.8181 0.00438367 0.00580935 0.0052109
745 3 1 31.8508 41.3536 53.9066 0.00727991 -0.00229297 0.0069933
640 3 1 20.2427 38.8663 52.5432 -0.00901243 0.00118555 0.00411081
2067 8 1 26.8604 36.4345 53.9191 -8.26602e-05 -0.00443995 0.00377981
1955 7 2 16.1605 39.3889 43.0283 -0.01996 -0.00678818 -0.00905399
1646 6 2 28.2147 40.779 56.4665 -0.00623209 0.00642098 0.015881
939 4 1 35.1007 42.9911 49.0828 -0.00074513 0.00698111 0.00142748
1316 5 1 35.6833 41.2418 53.0625 -0.000416972 -0.00113532 0.00271115
2647 10 1 33.0583 43.0633 52.9127 -0.00480606 0.000169509 0.00346818
2770 10 2 39.8686 40.3634 51.437 -0.00522059 -0.00205399 0.00668348
876 4 4 43.9359 40.1675 50.7652 0.000955489 0.00463275 0.00195972
1823 7 1 38.4635 45.0139 52.254 -0.00255306 0.00200671 0.00321585
2734 10 1 40.0568 43.5689 50.0462 -0.00366243 0.0026518 0.00127622
1288 5 4 38.869 39.1618 50.9206 -0.00297564 -0.000590899 -0.00121389
968 4 1 48.9346 41.379 42.7038 0.00859726 -0.00250035 -0.00944967
744 3 1 38.9173 41.3387 51.5669 -0.000134565 -0.00373813 0.00104409
2514 9 2 46.3439 34.1771 46.7592 0.00819579 -0.0214457 -0.00458177
1117 4 2 45.4852 36.8276 6.90505 -0.00272963 -0.0029596 0.0299743
1824 7 1 47.436 38.2367 45.5286 -0.00407563 0.000468634 0.00030006
2149 8 1 51.2428 39.7746 50.398 -0.000546012 0.00222922 -0.00410286
599 3 1 47.99 40.4095 45.1477 -0.00257532 -0.00722317 -0.00330418
2570 10 1 48.7717 41.2765 50.7742 -0.00237171 -0.00715605 0.000407697
1700 7 4 50.635 45.3682 51.3337 0.0111997 0.00337345 -0.00217737
690 3 4 1.61734 37.4051 51.553 0.00511672 -0.000391998 0.00577882
1304 5 1 54.9442 37.1394 47.6565 -0.00345002 0.0022517 0.00318028
2069 8 1 53.7522 44.2769 51.1951 -0.00972477 -0.000196361 0.0100545
2044 8 1 54.8001 40.4777 48.077 0.000282122 -0.00361076 -0.00396108
1848 7 3 58.9224 40.9575 48.9681 0 0 0
1351 5 2 59.9632 37.9589 47.3869 0 0 0
2775 10 2 51.1484 40.3286 45.3415 -9.00728e-06 0.0110695 0.0198968
2439 9 1 2.59424 49.4853 49.3741 0.00437259 0.00122316 0.00215261
51 1 1 11.3421 42.2597 49.7967 0.00121991 -0.00682091 0.0067374
401 2 1 11.2473 48.038 47.0351 -0.00213967 0.0024242 0.000112509
2299 9 1 10.2794 50.8364 52.2854 -0.00229666 0.00118394 0.00290304
672 3 1 8.81308 50.6992 52.5065 -0.00204921 -0.00466866 0.00780611
1934 7 2 11.1338 45.4589 47.6064 -0.000920923 -0.00347211 -0.00571686
2500 9 2 12.1272 52.3564 46.7271 -0.00688526 0.00606961 -0.000603739
700 3 1 25.1523 52.4554 51.7183 0.00419731 0.00391727 0.00615516
950 4 4 27.0219 49.7218 47.2371 0.00651678 0.0022458 0.00218001
1452 6 1 28.3351 52.8922 52.9317 -2.48532e-06 0.00127572 0.00348207
1027 4 1 24.7818 46.9402 52.1364 -0.00101342 0.000135719 0.00325114
2307 9 1 27.3828 49.6757 45.1624 -0.00501061 0.00364991 -0.00200378
122 1 1 26.598 43.7163 44.587 -0.00567475 -0.00419471 -0.00671987
561 2 2 10.2396 55.3175 44.6737 -0.0290842 0.00715887 -0.00432988
1004 4 1 23.1872 51.9015 52.2806 -0.00506931 -0.00086675 0.0037162
820 3 2 36.0767 2.6848 43.2534 0.00945658 0.0257278 -0.00825665
884 4 4 33.6507 50.4195 47.3472 0.000310868 0.00563515 0.000993016
595 3 1 27.4209 44.0775 47.1704 -0.00551048 -0.005081 0.000167536
217 1 1 34.9305 50.0423 46.7106 0.000239754 -0.00211577 -0.000861642
1034 4 1 32.4943 46.4109 45.5455 -0.000476972 -0.00604881 -0.00335325
2301 9 1 39.5331 52.4856 50.154 0.00673898 0.00277724 -0.00223468
1509 6 1 32.7389 48.2322 55.2456 0.00507828 -0.00815965 0.00947956
1390 5 2 45.2907 32.3703 54.9775 0.015666 -0.029404 0.0167499
2235 8 2 40.3414 38.8488 53.2054 -0.00290994 -0.0141562 0.00864455
1423 6 1 42.047 46.6794 50.524 5.48039e-05 0.000316536 -0.0023769
1542 6 1 47.214 45.7927 48.4347 -0.00235166 -0.00378027 0.00539264
2380 9 1 49.8632 45.9556 44.8586 -0.00146523 -0.0051094 -0.00528824
2406 9 1 43.0194 46.3829 47.2074 -0.00452422 -0.00155805 -0.00504368
546 2 2 53.2468 52.1134 47.9975 0.019438 0.0174283 0.00293809
55 1 1 50.462 45.0015 46.5653 0.000408897 -0.00276115 -0.0107384
1352 5 2 55.0193 39.6047 46.876 -0.0181604 -0.00180266 -0.0132839
2492 9 2 55.7857 50.1639 54.0559 0.0102657 -0.0165329 -0.00208844
2547 10 1 53.3859 50.4833 51.0584 0.000303641 -0.00117985 0.00326767
2744 10 1 52.9159 48.5641 47.2599 0.000185428 -0.00232029 -0.00498863
1220 5 1 57.0462 45.2165 45.8085 0 0 0
1270 5 1 59.3971 52.1385 45.3932 0 0 0
1234 5 1 59.05 49.7792 51.2411 0 0 0
2099 8 3 1.39256 56.1655 53.3679 -0.00125177 -0.00643864 0.00289666
1135 5 1 1.90092 54.8569 45.5984 0 0 0
351 2 1 3.09793 58.596 46.7576 0.00508357 0.00442071 0.00464346
976 4 1 10.0751 53.9453 43.2496 0.0080148 -0.00428123 -0.0149322
1724 7 1 11.8972 56.9932 49.1257 -0.00168088 0.00829102 0.00110477
679 3 1 10.6401 0.106018 51.0639 0.00250007 0.006531 -0.00135492
1476 6 1 12.2283 56.8013 51.839 0.000482243 0.00197209 0.00157783
890 4 1 14.0082 56.2026 47.9971 -0.00137408 0.000554358 0.00107631
1969 7 2 11.4569 46.8025 41.7277 0.00775216 -0.0191605 -0.0126554
1915 7 2 18.9937 58.1321 55.122 -0.0056698 0.0076946 0.00868679
2189 8 4 20.2663 59.778 54.2133 0.00093043 0.0033497 0.00521893
1314 5 1 23.5141 58.1675 49.0929 0.00500187 -0.00330431 -0.00374442
2644 10 1 25.8774 55.1981 45.6988 -0.000211157 0.00385571 -0.00251112
2318 9 1 24.8999 52.2143 49.3995 -0.000177208 -0.00415607 0.00316295
2436 9 1 23.2652 55.7558 44.1209 0.000719521 -0.00424402 -0.00493411
118 1 4 26.4564 55.0631 51.5761 -0.00477966 -0.00026682 0.00511158
2808 10 2 27.022 57.5075 51.0723 -0.0171574 6.35016e-05 0.0115992
718 3 1 32.701 55.2183 55.0625 -0.00310576 -0.00124183 0.00629992
1852 7 4 35.3683 56.952 50.2505 0.00218083 0.0027112 0.000502447
656 3 1 38.7611 56.9147 46.4779 0.00395001 0.00258987 0.00011569
2676 10 4 34.9972 51.8448 47.9275 -0.00247103 -0.00297262 -0.00339968
127 1 4 31.5468 55.4489 46.4219 -0.00759418 -0.00243302 -0.00126109
2234 8 2 27.363 57.0814 44.8057 -0.0106912 0.00346003 -0.0105877
1544 6 3 44.7096 55.5765 49.2995 0.00798277 0.00360619 0.00125369
1758 7 1 37.8287 51.8172 48.9168 -0.00351762 -0.0032022 0.00276218
2097 8 1 36.315 59.6334 48.8751 -0.00731123 0.00405905 -0.00295191
2728 10 1 42.8383 58.0771 52.6702 -0.00400351 0.000838181 0.00396092
2640 10 1 39.9395 59.0174 50.7306 0.00115085 -0.00176926 -0.00225034
2642 10 4 40.7911 57.3983 51.2602 0.00110651 -0.00168947 -0.00199928
1184 5 1 41.9742 0.127759 47.8251 -0.00243376 0.0042138 -0.00492098
219 1 1 46.5529 51.8728 49.8918 0.00142419 -0.00799712 0.00533428
2496 9 2 52.3559 2.16256 51.3004 -0.0119741 0.00967221 -0.000856493
1833 7 1 48.991 55.7267 50.7686 0.002971 -0.00282753 0.00105776
863 4 4 49.1508 58.1505 46.7213 -0.00146158 0.00068112 0.000857808
1548 6 4 45.7595 53.295 45.0771 -0.00351766 -0.000523185 -0.00399863
993 4 3 51.994 56.9581 49.1569 0.00484605 0.00751794 -0.00060544
248 1 2 39.6569 54.7482 51.956 -0.016465 -0.00229168 -0.000579422
1518 6 1 48.2575 57.0606 50.3172 -0.000136953 -0.00440784 -0.00402578
1925 7 2 45.6972 47.045 42.3118 -0.00566303 -0.0112747 -0.0135209
1820 7 1 51.0416 50.9991 49.7069 -0.00345494 -0.00284854 -0.00100163
212 1 1 53.4697 55.4188 49.343 -7.30327e-05 -0.000177344 0.000505212
587 3 1 57.2417 57.313 45.8964 0 0 0
180 1 1 2.80786 59.5938 46.1921 0.00749801 0.000942297 -0.0049007
1821 7 1 0.75224 57.8915 47.5062 0.00275129 0.00156644 -0.00336371
224 1 2 5.78236 8.7874 54.0159 -0.0155603 0.0281687 -0.0117595
1938 7 2 57.4352 57.7476 52.5645 -0.0322596 -0.0266639 0.00430726
2304 9 1 9.96722 2.92926 57.8177 -0.00217348 -0.00337767 -0.00241023
2092 8 4 12.4714 0.486669 55.5602 0.00198308 -0.00132811 -0.00303378
2668 10 1 13.1506 59.5294 59.3394 -0.000529137 -0.00134756 0.00480114
406 2 1 10.9499 7.152 0.873489 0.0037109 0.00340186 0.00279537
453 2 4 11.763 4.82629 0.770993 -0.002983 0.00408043 0.0032805
1072 4 2 7.4754 5.29622 3.68785 -0.0332887 0.0225848 -0.0236606
859 4 1 7.36139 1.48295 54.4735 -0.00528179 0.00532533 -0.00250255
688 3 1 20.7393 1.21629 58.0745 0.00323605 -0.000772552 0.00986294
1028 4 4 17.5162 8.32975 54.6053 -0.00156598 0.00239807 0.00340343
1589 6 1 19.1078 0.386433 54.4997 -0.00229062 -0.00263816 0.00347967
87 1 1 12.3417 8.24898 58.3757 -0.0055086 0.0059422 0.000145832
82 1 4 19.8844 7.40819 54.9534 -0.00273336 0.00447592 0.00124484
1976 8 1 17.6297 59.2013 58.9205 -0.00582025 -0.00255371 -0.000413207
483 2 1 21.7942 3.69103 0.946323 0.0054138 0.00517144 0.00201103
1306 5 3 25.6204 58.6549 56.6873 -0.000999856 -0.00522171 -0.00292227
209 1 1 20.2559 0.0736052 57.6105 -0.00668788 -0.000838253 -0.00181623
827 3 2 21.1104 57.7172 55.4069 -0.0165166 -0.00743671 0.000172386
772 3 1 33.7344 2.68392 58.6919 -0.00129466 -0.00138091 0.000416594
1641 6 2 31.813 58.8473 53.7258 -0.00389752 -0.00838501 0.000211894
1911 7 1 33.8282 2.63381 54.1273 -0.00447472 0.00258968 -0.000822518
2587 10 1 40.477 1.58339 59.6531 0.0029247 -0.000946161 0.00312541
507 2 2 32.042 8.1893 52.8656 -0.0133503 0.00758381 -0.00299247
427 2 1 41.2547 3.20063 56.9249 -0.000160132 -0.00857944 0.00199399
2813 10 2 39.071 2.42256 47.5924 -0.0194612 -0.00358183 -0.0179775
719 3 1 47.3945 8.42376 54.2512 -3.02534e-05 0.00462818 0.00215292
2126 8 1 53.1995 6.247 58.0289 0.00615925 -0.0052696 0.00183746
1421 6 1 48.4623 3.99207 54.9373 0.000562632 0.00204051 -0.00196797
1267 5 1 49.7115 1.99549 59.5747 0.00107155 0.00146395 0.00245277
1664 6 2 42.4535 50.7168 57.513 -0.0163662 -0.0259191 0.00363573
2262 9 4 49.0268 3.61457 55.6203 0.00287768 -0.00521704 -0.00265567
2652 10 1 44.2957 3.71148 56.4983 -0.00209246 0.00426611 -0.00111199
879 4 1 53.9899 4.38816 55.4456 -0.00048791 0.00014153 0.00510801
761 3 1 58.0647 6.26764 55.6754 0 0 0
5 1 1 53.9426 4.55033 58.3089 0.00589394 -0.00396656 0.000108007
602 3 4 56.3836 7.31995 57.7831 -0.0016944 0.00205349 -0.00138779
2213 8 2 56.5058 22.027 1.27051 -0.00960236 0.012483 -0.00443149
576 3 1 2.25714 14.5281 59.1961 0 0 0
1561 6 1 11.1809 4.24145 53.0586 0.00105517 -0.00713136 -0.00816886
1005 4 1 13.5054 14.2406 2.10757 0.000723242 0.00738914 0.00554931
1269 5 1 8.70598 7.7601 58.6653 0.00380361 0.00343263 -0.0133129
497 2 4 13.3628 8.66732 58.2863 0.0027923 -0.00299256 -0.000213378
1498 6 1 13.3941 8.99048 53.4875 0.0048556 -0.0041228 -0.00287135
414 2 1 7.87325 14.3737 55.1222 -0.00661154 0.00938213 -0.00186342
110 1 1 8.48717 9.08363 57.6018 -0.00639429 -0.00136077 -0.00142222
364 2 4 12.808 14.3898 56.3162 -0.0032265 0.00406598 0.000959223
535 2 2 17.6008 3.404 53.6032 -0.00142442 -0.014084 -0.0111729
2489 9 2 16.2712 11.7961 7.49161 0.00204359 -0.00291006 0.025194
1323 5 1 16.4269 8.90698 55.7146 -0.00271431 0.0014355 -0.00315434
1043 4 1 16.9853 11.4252 56.8541 -0.0060139 0.00660334 0.00129754
580 3 4 12.4944 13.0303 53.1146 -0.00574713 0.000415911 0.000322059
1146 5 1 22.2391 13.3682 54.9466 0.00468517 -0.0026089 -0.00284753
1769 7 1 25.4395 15.6386 58.1094 -0.00485736 0.00665086 0.0068747
1055 4 1 26.4559 14.9642 51.9896 -0.00215541 0.00260112 -0.00330014
685 3 1 23.517 12.0646 57.6337 -0.0054473 0.000144529 0.000192075
844 3 2 21.5762 10.4311 54.7977 -0.00671756 -0.00602612 -0.00395142
1213 5 1 35.8784 12.9442 57.3811 -0.000726956 -0.00261418 0.00780121
2007 8 1 34.2086 7.62316 52.352 0.00285036 -0.00183628 -0.0031435
2138 8 1 32.2874 6.75646 58.7034 -0.00590036 -0.00380995 0.00217038
1060 4 3 46.562 14.0537 57.4467 0.00771009 0.0059245 -0.00423047
609 3 1 39.9065 11.1546 1.04376 0.00486285 0.00682916 0.00850382
1278 5 1 40.9582 15.1609 51.9158 0.000759517 0.00896349 -0.00430742
1620 6 1 40.874 11.001 55.1714 -0.00639359 0.0046398 0.00146504
1822 7 1 40.7546 10.4465 2.40309 0.00210516 -0.00112485 0.00887011
537 2 2 40.9732 10.3255 59.293 0.000305319 -0.00117725 0.0016172
28 1 4 42.5702 8.27891 59.286 0.000281821 -0.00561541 0.0015248
2109 8 1 44.3613 10.291 55.4929 -0.00429653 0.00436848 -0.00186619
1271 5 1 51.8667 10.7046 53.9238 0.00438787 -0.00526491 -0.00274783
1242 5 1 48.2093 16.0738 54.03 -0.00188061 0.00656262 -0.00354176
2739 10 1 51.5956 8.80378 57.7805 -0.00207759 -0.00452299 0.00191073
1932 7 2 37.1045 7.59167 48.5676 -0.0174175 -0.00814845 -0.00872209
634 3 1 59.7467 6.13293 57.9203 0.00536476 -0.00589467 -0.00202212
2222 8 2 2.37055 10.0588 0.342561 -0.0149714 0.00491936 0.0104905
824 3 2 54.4017 10.4098 57.549 -0.00952425 0.0106428 0.00201329
1466 6 1 57.2799 12.8615 53.3515 -0.00347628 0.00236089 -0.00636462
97 1 1 54.8095 7.15696 52.5284 0.00755571 0.00225491 -0.00154953
693 3 1 59.7174 13.1441 54.5312 0 0 0
770 3 1 59.6399 13.8623 55.0008 0 0 0
515 2 2 54.2517 15.9087 57.8072 0.0163118 -0.00807673 -0.0190591
2526 9 2 3.66512 15.9367 52.054 -0.030431 0.00668953 2.07189e-05
1089 4 2 16.6374 17.488 55.5099 0.0262577 -0.0137694 0.0118218
298 2 4 0.115801 21.3195 56.5293 0 0 0
460 2 3 8.84788 19.2745 58.434 0.000211964 -0.000605141 0.00790383
1780 7 1 14.3022 16.4787 54.8556 -0.000893677 0.000311871 0.00125516
485 2 1 7.76175 22.261 56.4995 -0.0111057 -0.00472611 -0.00442275
1839 7 3 16.085 18.5741 55.5736 0.000981468 -0.00167687 0.00358499
1200 5 4 20.066 18.4433 56.2524 0.00431585 0.00573875 -0.00161432
630 3 1 19.4549 18.1508 48.7984 0.00437625 -0.000946367 -0.0102845
220 1 1 19.049 21.9135 57.3445 -0.0015589 0.000938951 7.24544e-05
2484 9 2 22.2966 19.217 59.7212 -0.00778941 0.00715063 0.00877384
13 1 1 25.4719 17.5955 52.9077 -0.00106121 0.00104405 0.000384565
1023 4 1 32.7976 16.9473 58.8792 0.00013036 0.00315803 -0.00195558
2184 8 1 33.8955 13.7989 55.5457 0.00223355 -0.00711191 0.00517037
2028 8 1 34.6533 16.3101 48.7092 0.00245463 -0.00618119 -0.0100123
2695 10 1 37.9749 13.4988 55.9457 0.00273279 -0.00482072 -0.00220653
388 2 1 33.8913 21.0273 58.6015 -0.00560909 0.00438593 0.000168793
299 2 4 39.9379 18.2612 57.2883 -9.77068e-05 0.000313619 -0.00449737
125 1 3 44.4061 11.9362 2.06185 0.00945849 -0.00904689 0.00591815
767 3 1 39.662 20.1503 54.1471 -0.00514808 0.0047986 -0.00512567
751 3 1 45.6899 15.1806 57.4138 0.00567976 -0.000419216 0.00195632
910 4 1 50.3338 17.1683 54.9752 -0.000937567 0.00411206 0.00502763
803 3 2 42.0425 16.7304 4.53203 -0.0153818 -0.00159022 0.0165869
1711 7 1 51.2626 19.0819 56.6119 0.000134312 0.00551695 -0.000126268
2495 9 2 46.3877 11.3539 57.1475 -0.0057614 -0.00840864 0.00224167
303 2 1 49.8672 24.122 59.6489 -0.00644108 0.0060504 0.0026846
2283 9 1 50.4063 17.4677 54.5533 -0.00541426 -0.00371544 0.00231386
1761 7 1 53.8326 19.5763 53.1609 0.00382735 -0.00067463 0.00100936
1162 5 1 53.0637 17.0722 55.7162 0.000962828 0.00305932 -0.00492453
575 3 1 54.2814 20.3506 52.3058 0.000886882 0.00143673 -0.000780634
2548 10 1 57.0448 15.0229 57.8774 0 0 0
2550 10 1 59.5183 16.4081 53.4371 0 0 0
2661 10 1 58.5426 15.186 56.3584 0 0 0
1603 6 4 57.3843 18.7272 54.1225 0 0 0
324 2 1 57.3942 19.7178 56.0894 0 0 0
771 3 1 58.3496 20.5525 59.8015 0 0 0
1903 7 1 55.2444 22.1732 53.9847 0.000726435 0.00308754 -0.000322099
676 3 3 4.69213 23.315 56.6583 -0.00368762 -0.00552146 0.00680723
1808 7 4 59.7436 26.32 58.4828 -0.00102292 0.000202573 0.000905586
572 3 4 0.717497 23.1296 52.7629 0 0 0
85 1 1 14.1524 29.0055 50.6621 -0.00294896 0.00649605 -0.00534509
2381 9 3 21.8405 25.2179 0.240931 0.000761848 -0.00203721 0.00383759
459 2 1 29.4298 29.5835 53.8508 -0.000755516 0.00658115 -0.00952792
372 2 3 30.1608 27.2827 52.8461 0.00670673 0.00391631 -0.00587045
454 2 1 22.3222 28.3737 56.3896 -0.00440861 0.000276482 0.00388463
2051 8 1 25.3993 30.3561 53.6561 0.000311234 0.00124541 -0.00303099
1975 8 3 27.5127 26.2916 56.4505 0.00148127 -0.000366239 -0.00129535
2347 9 1 27.0839 23.8939 58.2625 -0.0038763 -0.00169175 0.00413108
491 2 1 27.6775 22.5203 52.1588 -0.0047583 -0.00118102 -0.00483352
1254 5 4 32.3309 25.0959 57.0973 -0.00147271 0.00378799 -0.00342247
1317 5 1 30.1381 24.1326 53.0692 -0.00111229 0.00323766 -0.00943838
1246 5 4 33.7987 25.8358 57.905 -0.00182153 -0.00800252 -0.0038458
1384 5 2 39.7861 39.241 6.7416 0.00858923 0.0212712 0.015333
667 3 3 31.6124 25.1482 52.8671 -0.00254826 0.00540842 0.000213213
2161 8 1 33.8671 24.8154 2.41688 0.00244781 0.00102584 0.00521899
6 1 4 35.4119 28.4604 59.7836 -2.50104e-05 0.00194824 0.000549463
348 2 1 31.3722 23.3599 55.1882 -0.00170958 -0.00674411 0.00159782
71 1 1 36.2165 27.9349 59.3485 -0.00259027 -0.00373587 0.00196287
1599 6 1 41.1188 31.9497 59.6475 -0.00179401 0.0065797 0.0104002
1217 5 1 48.9007 27.3234 57.1412 0.0133952 0.00453705 0.000338248
2103 8 1 47.5656 28.0696 1.11735 0.00631081 0.00328946 0.00583741
1817 7 3 40.5076 28.4573 53.1106 0.00193726 0.000729135 -0.00386404
199 1 1 39.6982 27.891 58.9305 0.00126022 0.00127 0.00122005
2084 8 1 43.2716 25.135 57.416 0.00188876 0.000327803 -0.0012216
1 1 3 50.6159 30.7674 55.8241 0.00165449 0.00802894 -0.00577109
2756 10 1 49.0283 25.8734 0.160045 -0.00309845 -0.000221633 0.000814092
38 1 4 45.513 22.8182 56.3504 -0.00099739 -0.000435737 0.00222732
1236 5 1 48.2428 27.3814 58.17 -0.000354516 -0.00139346 0.0023137
1226 5 1 48.9391 29.548 51.7271 -0.00131909 -0.000833621 -0.00564808
489 2 1 43.7318 27.1875 58.4748 -0.00541391 -0.00526774 0.00138708
181 1 1 57.0739 24.0165 59.1565 0.00358784 -0.00479691 -0.00594767
2167 8 4 59.789 23.2955 53.133 0.00343636 0.00114434 -0.00180469
260 1 2 55.491 29.0598 57.8844 0.0130648 -0.00258208 -0.0196641
954 4 1 53.2261 29.6031 55.3088 -0.00362972 0.00127124 -5.79958e-05
1490 6 1 58.3039 25.3549 58.0666 0 0 0
566 3 1 57.9225 24.6419 55.0545 0 0 0
2056 8 4 56.9844 28.0952 58.5218 -0.0048734 -0.003705 -0.000966229
804 3 2 0.514223 37.4364 49.7636 -0.00609608 0.0118491 -0.00964115
2791 10 2 55.3385 38.2338 4.55896 -0.0111718 -0.00356596 -0.00182853
2355 9 1 1.23253 30.6282 54.7225 0 0 0
311 2 1 16.5131 28.6091 54.5415 0.00712821 -0.00312764 -0.00743998
1127 4 2 9.25734 31.6036 53.7063 0.00388798 -0.014402 -0.0217303
1656 6 2 9.35989 38.7141 2.48014 -0.00310001 0.0176996 0.0146715
98 1 1 14.6726 34.4091 54.4257 0.00111219 0.00191638 -0.00426352
1684 6 2 9.37918 34.0451 48.9366 0.04083 -0.00952453 0.000218931
878 4 1 14.7485 28.93 55.9207 -0.00171815 -0.0085047 0.00230077
511 2 2 22.2102 41.5648 48.7857 -0.015348 0.0192033 -0.0137789
2054 8 1 19.912 34.2658 55.8832 -0.00619167 0.000306559 -0.00447272
1075 4 2 20.6829 38.7785 54.0563 -0.0121577 0.00779787 -0.0083805
789 3 2 28.9631 35.2227 42.7586 0.00804327 0.0098341 -0.0254574
2153 8 1 26.916 38.0272 51.6863 0.00545373 0.0100758 -0.00457863
749 3 1 25.7676 37.1754 0.529888 -0.00173094 0.00772504 0.00175839
2619 10 3 25.4018 32.8214 54.1158 0.00535994 -0.00208744 -0.00516893
1331 5 1 31.3783 36.3261 53.1178 0.00781934 -0.000382531 -0.00597873
913 4 1 23.5646 29.7447 52.7622 -0.000469136 -0.000966632 -0.00423348
966 4 1 22.0779 30.2336 0.766396 -0.00233661 -0.00118574 0.00307294
591 3 1 20.6972 30.672 54.6613 -0.00492113 -0.00077964 0.00033471
422 2 4 32.3083 34.3747 56.8802 -0.000811467 0.00707747 0.00775522
2509 9 2 33.7715 37.8826 0.096753 0.00235525 0.00514286 0.00388078
1327 5 1 29.6799 34.8039 57.6562 -0.00161451 -0.00192041 0.00296542
2711 10 1 34.2251 33.9273 53.1117 0.00253261 -0.00289697 -0.00183443
872 4 1 30.1815 34.1946 59.8237 -0.00402678 -0.0031671 0.000585962
665 3 1 33.6352 35.1231 57.284 -0.00574107 0.00303832 -0.000516985
432 2 1 32.6414 30.0019 0.167935 -0.00790059 -0.00255735 0.000635171
2555 10 4 36.1383 32.8986 57.8779 0.00253283 -0.00475404 -0.00154701
259 1 2 30.9233 44.2742 4.14958 -0.0161627 0.0255315 0.0118669
225 1 2 53.0991 41.9602 55.0903 -0.011723 0.000426518 -0.00598818
717 3 1 37.5138 31.2475 54.4846 -0.0047576 -0.00362176 -3.53127e-05
1666 6 2 39.8622 24.2937 0.227975 -0.0104793 -0.0180467 0.00126756
1636 6 2 41.117 33.8741 56.6906 -0.0117304 -0.00410695 -0.00600884
2802 10 2 50.3238 25.9808 40.2746 -0.0127181 -0.0158451 -0.018476
1081 4 2 52.8674 31.6305 54.202 -0.0002159 0.0104531 -0.00961911
1333 5 4 50.4605 33.8264 54.4453 0.000281046 0.00377314 0.00274063
1189 5 4 47.6749 30.0013 59.0936 0.00171669 -0.00163237 0.00778756
1428 6 1 51.4258 30.0895 54.5985 -0.00237776 -0.000148973 -0.00900938
2651 10 1 50.2379 32.1807 58.9097 0.00265519 -0.00447403 -0.000904827
644 3 1 48.8487 34.0342 54.4139 -0.00432191 0.00101964 0.00117583
191 1 3 45.6772 35.7445 57.5015 -0.00151817 -0.00279637 -0.000481145
1640 6 2 2.8108 34.4016 6.14023 0.010162 0.00753142 0.0178258
1686 6 2 55.2932 32.9934 0.112723 0.00674067 0.0118984 -0.00606593
1378 5 2 7.51691 28.1878 54.5732 0.0312691 0.0175463 0.00721978
210 1 1 52.7808 30.3118 59.2014 -1.05128e-05 0.000317636 -0.000335617
1791 7 1 56.8311 31.4006 53.7645 -0.00117947 -0.00129185 0.00131234
658 3 4 58.8648 30.4105 54.2891 0 0 0
673 3 1 58.0161 34.4014 59.2004 0 0 0
2781 10 2 55.2359 30.8448 54.0515 -0.0144341 0.00623511 -0.00047421
1410 5 2 57.0164 37.4104 8.37063 -0.00759077 -0.000421656 0.0174031
257 1 2 2.77847 40.3127 58.6021 -0.00862074 -0.00533719 0.0230488
1085 4 2 6.70401 41.4089 50.6019 -0.00193955 0.0157672 -0.0193818
309 2 1 2.71105 41.0322 57.6344 -0.00201498 -0.000846468 -0.00345306
615 3 1 20.4636 44.2968 53.1594 0.0113837 0.0036854 -0.00968101
560 2 2 14.757 48.3033 52.2021 -0.00757465 0.0210106 -0.015055
21 1 1 13.8932 42.2264 59.0075 -0.00907294 -0.00354017 -0.00106352
2335 9 1 16.78 42.4691 56.7361 -0.000217197 0.000563509 0.00444601
1276 5 4 20.8234 40.1761 53.9337 -0.00147686 -0.000343293 0.00187557
2391 9 1 19.9997 41.6844 0.0387198 0.00170855 -0.00531412 0.00868766
2627 10 1 21.7188 40.0812 54.3283 -0.000568715 0.00283212 -0.00238297
2181 8 1 12.5277 36.0985 54.3228 -0.00599411 -0.00526482 0.000347974
2776 10 2 15.4023 37.7456 55.4973 -0.00778706 -0.00707692 0.000420118
686 3 1 20.4118 41.2154 56.4213 0.00581311 -0.0063031 -0.00330961
2753 10 4 29.7565 39.7142 56.6845 0.00163885 0.00168412 -0.00658145
1350 5 2 27.2399 35.6379 45.1881 -0.00287741 -0.0139347 -0.0171032
1464 6 1 31.8241 39.4983 53.0848 0.00848492 0.00299936 0.000208765
14 1 1 27.3658 41.6834 2.49476 0.00785246 -0.00334876 0.00705256
1470 6 4 29.044 44.7391 56.7765 0.000157299 0.00666301 -0.00301535
441 2 1 28.1393 38.8128 58.4359 -0.00152167 0.00102158 0.00297449
1011 4 1 25.3177 44.2881 53.6882 -6.75314e-05 5.32053e-05 -0.00271408
2041 8 1 28.1988 36.6026 56.8656 0.00498945 -0.00724378 -0.000557706
2529 9 2 21.1481 46.7853 1.69166 -0.01097 0.00861999 0.00689055
1183 5 1 30.9089 44.7713 54.7456 -1.10717e-06 0.00575973 -0.00497734
192 1 4 33.8109 41.8603 52.4473 -0.00368046 -0.000492094 -0.00123273
1679 6 2 31.4745 41.6977 56.8778 -0.0100408 -0.00573814 -0.00260085
1157 5 1 35.4664 41.6901 52.7164 -0.0026926 -0.00448009 -0.00140685
1016 4 4 40.0474 43.9936 54.3727 -0.00349184 0.0019126 0.00354171
1616 6 1 44.2654 42.6357 58.3552 -0.000637756 0.00660687 0.00427812
1983 8 1 44.3727 47.5841 57.936 0.00336887 0.00771791 0.0045559
1876 7 4 40.6468 36.0709 55.046 0.00287488 -0.00568231 0.0021656
1713 7 1 38.8861 44.9009 56.849 0.00104161 0.00140669 0.0023127
1996 8 1 35.9129 44.2518 59.5939 -0.0033391 0.00444353 -0.000128231
2004 8 4 44.5949 42.1926 1.28836 0.00389439 0.00177266 0.00423164
1790 7 1 44.1685 39.0987 0.186782 0.00196365 -0.00329763 0.00234868
940 4 4 44.8736 40.2627 59.5386 0.000412259 -0.00516643 0.00255496
1290 5 4 48.3953 41.7191 54.3456 0.00183153 0.00531011 -0.00992384
721 3 1 48.9104 46.2191 57.3624 -0.000535966 0.00276122 -0.00314604
2694 10 3 50.3233 37.4002 57.1441 -0.00223186 -0.00134888 -0.00225161
138 1 4 52.2944 45.1625 55.3798 0.00156717 -0.00139871 0.002054
484 2 1 45.1381 43.4028 59.1462 -0.00566678 -0.000244811 -0.000792181
1734 7 1 53.2825 41.9583 52.4235 -0.00115932 0.0060497 0.00189099
2718 10 1 53.1081 43.661 53.9263 -0.00269939 -0.00030657 -0.000809697
1949 7 2 0.199138 37.0406 52.163 -0.0188826 -0.0132034 -0.00999709
1607 6 1 54.9285 40.7783 57.4773 0.00113221 -0.00552614 0.00115612
1917 7 2 55.0095 42.2279 57.0563 -0.00942157 0.0143211 -0.015927
708 3 1 57.908 38.2719 55.8636 0 0 0
1971 7 2 56.6979 52.2764 50.9732 0.0170665 0.00629677 0.00747644
1965 7 2 56.2203 37.7965 46.1631 -0.00396425 -0.0117652 -0.0195588
126 1 4 8.72924 47.193 54.4699 -0.00151242 -0.00433672 0.00141141
1145 5 4 9.85214 47.0388 56.7013 0.0108316 -0.00403625 -0.0024059
1147 5 1 15.9751 43.0241 54.731 0.0064238 -0.00922838 0.000378823
1727 7 1 6.17991 52.8986 55.5563 -0.00389399 0.0062858 0.00122196
2817 10 2 19.9106 34.9444 2.74979 0.000518962 -0.0290379 0.0114822
1186 5 1 19.2747 49.6374 53.7873 0.00809182 -0.001305 0.00241968
801 3 2 16.8797 53.8867 57.8229 -0.004927 0.00716655 0.00308757
1070 4 2 11.3308 50.2725 48.0303 -0.0113828 0.00132851 -0.0104087
162 1 4 26.8658 50.3035 53.9793 -0.0033012 -0.00196379 0.00295271
2274 9 1 29.0709 51.4542 2.33996 0.00398675 0.00471923 0.00618565
1422 6 1 33.2555 50.7379 55.8015 -0.000999555 0.000844987 -0.00790795
2236 8 2 28.0962 46.9597 3.04255 -0.00637601 -0.0048517 0.0206392
424 2 1 29.6271 50.1906 54.2163 -0.0036183 0.00379481 -0.00445699
608 3 1 31.2552 46.2845 53.2076 -0.00266284 -0.00263951 -0.00322911
1673 6 2 44.7003 41.8184 53.9782 0.00732393 -0.00710881 -0.00884142
2071 8 1 36.315 48.7236 58.1653 -0.00478818 -0.00221002 -0.00180229
1154 5 1 39.8311 50.624 54.7538 0.000160309 0.0052714 0.00143998
456 2 1 39.8244 48.5639 50.7533 0.000107241 0.00248239 -0.00367077
1144 5 4 39.6303 53.5138 55.2182 -0.00175931 0.00429655 0.00097254
380 2 1 38.2723 48.621 58.2508 4.33347e-05 0.001801 0.000660376
2172 8 1 45.9259 49.9123 1.60006 0.00345269 -0.00288957 0.00546111
166 1 1 52.0034 47.6968 58.0364 0.0017359 -5.28876e-05 0.000836283
411 2 1 46.7501 49.5003 56.3607 -0.00113781 0.00260008 -0.00374665
760 3 1 48.1131 45.4392 58.2815 0.000375611 -0.00940878 0.000997152
919 4 1 52.0569 47.5566 57.5754 0.00547237 0.00347433 0.00475243
2147 8 1 55.3979 49.8959 58.3369 0.00287327 -0.00071758 0.00237114
382 2 1 56.8548 48.672 53.3153 -0.000366565 -0.00301206 0.000725462
1536 6 4 56.3534 52.4736 57.926 0.00376433 -0.000993554 -0.00341684
2052 8 1 58.617 49.0581 53.461 0.0044452 -0.000271882 -0.0013931
2197 8 2 59.5921 48.3227 59.9145 0 0 0
584 3 1 58.6456 46.7862 59.0078 -0.000824319 -0.00406883 0.001437
244 1 2 1.57366 53.7658 57.1702 0 0 0
2298 9 1 20.7559 59.3393 52.5175 0.00620333 0.00676572 -0.00709463
569 3 1 13.8697 58.2583 0.709274 -0.00417133 0.00443173 0.00691403
198 1 1 22.02 55.6779 58.9525 -0.000548303 -0.00207681 0.00126985
1670 6 2 27.4904 55.8842 57.7092 -0.00102696 0.00220582 -0.00246098
1296 5 1 24.4822 55.3175 55.9607 -0.000567177 -0.00547555 -0.00325983
1768 7 1 29.9115 52.0304 53.0167 -0.00440654 -0.00497829 0.00078444
2732 10 1 35.349 59.4558 52.6489 -0.00912027 0.00391555 0.000215161
2594 10 1 36.1309 52.8084 48.0435 -0.00580828 -0.00301323 -0.0105879
2139 8 1 40.6877 54.3494 1.59637 -0.00295677 -0.0050999 0.00587805
2096 8 1 45.8931 52.5024 52.1498 0.00275011 -0.00301056 -0.00182782
295 2 1 41.321 52.5096 51.9371 -0.00410713 -0.00320704 -0.00490639
471 2 1 51.4146 59.7805 58.5047 -0.00298201 -0.00239149 -0.000488933
2727 10 1 46.7589 55.8177 0.386497 0.00352789 0.00448737 0.00527165
1175 5 1 51.1225 54.0248 57.3357 0.00420711 0.000408026 -0.000591937
586 3 1 45.246 54.3592 53.2092 -0.00309557 -0.00337706 0.000162431
2601 10 1 45.7139 52.1958 52.1354 -0.0020302 -0.00244576 -0.0031642
1936 7 2 2.1841 6.23444 57.7444 0.00726102 0.0242362 0.00824158
239 1 2 54.8051 57.8621 56.6071 -0.0139733 -0.00771189 0.0154814
48 1 1 54.1944 55.1441 59.3367 0.00235621 0.00540007 -0.00205963
2595 10 1 55.6829 58.7899 52.3642 7.92094e-05 -0.002182 -0.00202623
337 2 1 51.8919 56.0433 58.7742 -0.00311398 -0.00168681 0.00582996
305 2 1 58.5878 56.0935 53.8533 0 0 0
ITEM: TIMESTEP
25000
ITEM: NUMBER OF ATOMS
2820
ITEM: BOX BOUNDS pp pp pp
0.0000000000000000e+00 6.0000000000000000e+01
0.0000000000000000e+00 6.0000000000000000e+01
0.0000000000000000e+00 6.0000000000000000e+01
ITEM: ATOMS id mol type x y z vx vy vz
3 1 1 7.70764 4.38005 1.22913 0.00617376 -0.010133 0.00189037
817 3 2 57.2508 5.02883 59.307 -0.0204514 -0.00377981 -0.02366
2596 10 1 58.066 4.2942 1.63833 -0.00519022 0.00161739 -0.0104412
2522 9 2 -0.0600434 6.67245 11.3438 -0.0375029 -0.0354371 0.00622198
871 4 1 13.0889 1.49915 0.553363 0.00409027 -0.00597329 0.000330815
1528 6 4 9.89767 3.028 4.17177 -0.00311611 -0.00319448 -0.00656762
2242 8 2 25.2843 57.6483 2.58494 0.0192123 -0.00784648 -0.00170664
2152 8 3 22.0228 0.439375 4.01147 0.00114479 -0.00084461 -0.000680682
1816 7 1 21.6493 4.30168 4.11139 -5.59736e-05 -0.00130443 -0.00219197
1300 5 1 20.8688 9.22683 0.828519 -0.000857219 0.00635503 -0.00205932
2189 8 4 22.5924 8.15226 7.26066 0.00093043 0.0033497 0.00521893
1762 7 1 14.5579 3.00118 5.933 -0.00568789 0.000284949 0.00488379
2141 8 1 21.8857 5.19522 10.2497 0.0011531 0.00461826 0.00897918
1735 7 1 17.0702 1.71347 6.6943 -0.00603797 0.000864347 0.00109861
1831 7 1 17.1034 6.96064 7.96673 -0.000254289 0.00812933 0.00716486
1580 6 4 21.0059 4.09677 2.89462 0.00237567 0.00694443 -0.00933825
2535 9 2 14.2748 7.01512 53.8814 -0.00608419 0.00575514 -0.0241382
2461 9 4 21.4409 5.90227 5.16309 0.000658953 0.00607706 0.00751193
2425 9 3 24.7008 59.4591 6.96542 0.00183906 -0.00303451 0.00173491
143 1 1 28.8495 8.84185 0.740274 -0.000733883 0.00401559 -0.0029967
460 2 3 34.2777 2.51733 6.43071 0.0102441 -0.00676486 0.00319501
2775 10 2 17.1622 10.3078 5.37871 -0.0136402 0.0119881 0.00795425
700 3 1 35.6456 2.24858 7.10622 0.00419731 0.00391727 0.00615516
1917 7 2 25.7145 6.68991 5.1867 -0.0160865 0.0134605 0.00304542
590 3 1 33.2388 5.96943 1.40751 -0.00427682 -0.0016139 -0.00723377
2607 10 1 49.016 3.97273 59.2761 -0.00633671 0.00247518 -0.00427857
125 1 3 46.1418 57.8198 4.87828 -0.00309544 -0.00461872 -0.00109741
1267 5 1 49.6114 4.24655 6.82581 -0.00107235 0.000376465 0.00331478
449 2 1 49.5293 3.92504 0.963203 0.000728267 0.00294792 -0.00209078
2691 10 1 50.9714 7.92128 0.143901 -0.000755483 0.00314006 -0.00422704
2740 10 1 42.4646 5.00052 1.03385 -0.00519453 -0.00260519 -0.00154826
1983 8 1 50.4692 2.69555 6.31528 -0.0021437 -0.0013785 -0.0012558
1141 5 1 47.9761 3.13866 6.84858 -0.00219913 0.000167715 -0.000805259
822 3 2 48.5147 9.55262 4.77239 -0.00903753 0.0231036 -0.00478079
2697 10 1 55.1133 3.328 2.46479 0.00665444 -0.00253046 0.0091958
1121 4 2 58.7517 7.0898 5.41858 0 0 0
4 1 1 55.8057 1.88873 3.65108 0.00228796 0.000790345 0.00122913
2163 8 1 53.6606 1.16457 6.47453 -0.00180699 0.0042285 -0.000919807
1359 5 2 0.329627 14.6053 5.26558 0 0 0
1986 8 1 4.80032 13.9527 5.56434 0.00219971 -0.00067972 -0.00180334
1164 5 1 58.1595 8.928 57.2759 -0.00709149 0.000735207 -0.010039
569 3 1 19.0419 18.6549 1.51436 0.00829484 0.0120791 -0.00588283
87 1 1 11.7156 1.07868 3.97369 0.00289039 -0.0136532 0.00305015
999 4 1 13.5878 9.35935 3.19221 -0.00105185 -0.00747013 -0.00194246
841 3 2 10.8896 9.66233 9.21535 0.00932077 -0.00348083 0.00627554
506 2 2 12.3704 18.7558 18.1509 0.00291433 0.0176511 0.022711
1028 4 4 13.6012 14.3249 3.11384 -0.00156598 0.00239807 0.00340343
878 4 1 10.4531 7.6683 1.67263 -0.00171815 -0.0085047 0.00230077
406 2 1 20.2272 15.6566 7.86191 0.0037109 0.00340186 0.00279537
1035 4 1 23.4774 12.434 9.64505 0.00571339 0.00121485 0.00630565
1861 7 3 18.3687 9.42009 7.48829 -0.00746075 -0.00198305 0.00213752
241 1 2 15.1045 12.0298 57.4564 -0.00967245 -0.00271467 -0.0134174
2196 8 2 10.7166 9.84669 9.55548 -0.0120968 -0.00924272 0.0193116
1393 5 2 10.7414 9.90023 7.00154 -0.00990409 -0.0060958 0.00998827
1787 7 1 30.9268 13.1225 59.3781 0.00501537 0.00377011 -0.00221298
1188 5 4 22.073 9.88792 1.11149 -0.0034031 -0.000983652 -0.000701071
107 1 1 25.3983 16.7347 5.40532 -0.00280897 0.00417824 -0.000901533
1171 5 1 26.5895 13.5217 12.5183 -0.000340519 0.0015527 0.0118545
2428 9 1 27.3235 11.1929 2.2105 -0.00372787 0.00356246 -0.000715427
1786 7 4 27.2116 9.05066 2.48919 -0.00398745 -0.00314172 0.000674346
523 2 2 34.8518 19.8336 57.3955 0.00999135 0.0183551 -0.0133459
2107 8 1 22.9636 13.2471 2.52067 0.00058749 -0.00044495 0.00383021
483 2 1 35.3287 16.6196 5.9739 0.0054138 0.00517144 0.00201103
1238 5 1 35.9187 9.0399 7.02353 0.00883821 -0.00321791 -0.000214687
1560 6 1 35.8044 15.1712 57.3813 0.00666162 0.00476943 -0.00792953
2435 9 1 30.6057 6.37214 5.99343 -0.00459348 -0.00253616 -0.000217489
2454 9 1 45.2068 14.0297 59.115 0.00255854 0.0118118 -0.0024056
537 2 2 41.7365 7.38234 3.33596 0.000305319 -0.00117725 0.0016172
1358 5 2 39.1163 11.0451 59.6858 -0.00769748 0.00238551 -0.00627845
1631 6 1 42.9111 10.1661 6.87348 -0.000635668 0.00192729 -0.000821482
1336 5 1 53.2289 8.5078 3.49536 -0.000408095 -0.00172788 0.00052164
801 3 2 59.3796 14.0491 4.78889 0.0111841 -0.000473636 0.0108195
355 2 1 55.1753 7.14345 2.50888 0.00633293 -0.00218206 0.00223083
1889 7 1 54.1332 9.6835 4.84288 -0.00106145 0.00232276 0.00255461
1185 5 1 53.4121 9.86465 1.50408 -0.00199358 -0.00408848 -0.0036895
2150 8 1 57.1876 12.836 0.726185 0.000793431 0.00023535 -0.00539528
1077 4 2 53.3118 11.4134 3.78147 -0.012865 -0.0105464 -0.0202444
1108 4 2 1.64755 18.4561 2.13241 0 0 0
2707 10 3 2.91452 21.6147 7.30906 0 0 0
1946 7 2 1.57856 17.2808 0.833009 0 0 0
92 1 1 0.750465 22.1208 0.958992 0 0 0
1348 5 1 5.59912 20.8162 1.38277 -0.00393067 -0.00445592 0.00234141
1447 6 3 13.97 20.3507 7.08662 0.00245869 0.00325432 0.0026183
663 3 1 9.69223 20.0908 5.75105 -0.00383182 -0.000969616 0.00135232
766 3 1 8.55465 17.7951 3.89559 0.000357592 0.00446086 0.00198746
806 3 2 11.4983 13.0685 59.1662 -0.00345925 -0.0108114 -0.00780454
1915 7 2 15.2468 24.902 0.734101 0.00911596 0.0178975 -0.0136004
2043 8 1 14.5765 16.55 5.95756 -0.00617427 0.0012675 0.000310994
2347 9 1 17.3932 19.6645 8.5902 -0.0038763 -0.00169175 0.00413108
1839 7 3 18.5387 14.3819 4.53609 0.000981468 -0.00167687 0.00358499
846 3 2 19.1863 21.9256 2.85385 -0.0112395 0.00844887 -0.00365257
2635 10 1 22.964 18.9959 5.05155 -0.00595163 -0.000620372 -0.000277033
2801 10 2 29.4628 6.41597 48.6494 0.011675 -0.0184748 -0.0299217
71 1 1 29.7408 18.5953 4.25564 -0.00259027 -0.00373587 0.00196287
489 2 1 30.197 14.0182 1.94253 -0.00541391 -0.00526774 0.00138708
1085 4 2 45.5208 42.7461 6.76022 0.0286175 0.0448514 -0.000940214
562 2 2 51.0454 21.0119 5.91804 0.0245533 0.0150657 -0.000454775
2220 8 2 39.4827 21.5035 12.183 -0.00783548 0.00986004 0.0100743
779 3 4 44.2789 24.2754 4.65464 -0.000692716 0.00554114 0.000544224
1070 4 2 51.8824 11.0751 51.0097 -0.00240133 -0.00794805 0.0107689
38 1 4 43.0196 21.7288 1.91868 -0.00099739 -0.000435737 0.00222732
818 3 2 54.9977 16.8697 7.8604 0.0159034 -0.00743272 -0.00123597
2026 8 4 50.9664 16.1303 0.585973 0.00347539 -0.000264218 -0.0022
1052 4 1 49.839 13.8692 3.82328 -0.00330538 -0.00246818 -0.000488514
2474 9 1 44.1557 18.1213 0.400346 -0.00461032 -0.000648239 -0.000802713
1458 6 1 54.1548 16.3262 6.20638 0.00468538 0.00318834 -0.00406626
832 3 2 53.2536 16.2795 5.31229 0.00186046 -0.00178791 0.0072421
2137 8 1 1.22331 28.5158 3.31769 0 0 0
1526 6 4 2.89186 26.3636 5.0236 0.00206819 -0.000841876 -0.00156187
676 3 3 5.69639 23.8194 3.14005 -0.00865919 -0.00156904 -0.00248735
2803 10 2 4.08563 25.4975 59.9552 -0.00395611 0.0204618 -0.0132369
826 3 2 9.90415 15.6435 0.386033 0.0335292 -0.0477723 -0.00560803
1567 6 1 7.57043 27.6528 58.2182 -0.00164255 0.0108566 0.0100459
2737 10 1 10.9238 20.9205 1.39321 -0.000106175 -0.00436956 -0.000332943
454 2 1 11.3007 29.0649 6.10122 -0.00440861 0.000276482 0.00388463
2815 10 2 12.939 19.5119 4.5949 0.0209371 -0.00718762 -0.00374615
51 1 1 14.3919 25.2074 6.64023 0.00121991 -0.00682091 0.0067374
531 2 2 11.894 34.0418 55.3757 -0.0178127 0.0201443 -0.0102117
1887 7 1 17.2648 28.4238 0.139134 0.00141529 0.00846442 -0.00364214
105 1 4 18.4319 27.6773 3.86878 -0.00183801 0.00514867 0.000885022
966 4 1 16.2363 27.2693 8.44875 -0.00233661 -0.00118574 0.00307294
432 2 1 12.89 23.6085 1.75586 -0.00790059 -0.00255735 0.000635171
987 4 1 18.0662 23.4933 0.536568 -0.00399543 -0.00459424 -0.00144043
872 4 1 20.1146 26.2769 1.28862 -0.00402678 -0.0031671 0.000585962
2780 10 2 31.9996 16.6876 21.1586 0.019439 -0.0189091 0.0379849
2083 8 1 30.3925 24.7227 7.14831 0.00449949 -0.00191799 0.00131687
1211 5 4 27.957 25.4813 0.174686 -0.000988238 -0.00108189 -0.00305739
109 1 1 26.5942 30.4044 9.38592 0.00310635 0.00528894 0.00729069
1752 7 4 29.5309 25.6187 4.83778 0.000211196 -8.84222e-05 -0.0035397
2119 8 1 27.0421 26.807 3.87237 0.000984567 0.000990084 -0.00612869
2485 9 2 26.8873 23.2943 1.54105 -0.000384293 -0.0114658 -0.00653968
2067 8 1 26.6537 25.3346 3.36864 -8.26602e-05 -0.00443995 0.00377981
130 1 1 39.9559 23.3493 0.460016 0.0067178 0.00146386 -0.00404249
1578 6 1 35.4225 27.5927 0.498693 -0.00367682 -0.000295135 -0.000715031
176 1 1 36.1629 26.7736 58.8789 0.000692873 -0.00394107 -0.00279016
2777 10 2 23.3486 13.9406 3.96338 -0.0192003 -0.0231865 -0.00424997
2125 8 1 39.5212 26.3147 59.5986 0.00397656 0.00142861 -0.0052825
2756 10 1 41.2822 25.3193 2.19528 -0.00309845 -0.000221633 0.000814092
799 3 2 43.3242 27.2158 58.1905 0.0102298 0.0091518 -0.011664
1653 6 2 38.4872 21.5699 56.5 -0.0123867 -0.00605911 -0.0135961
910 4 1 47.9899 27.4484 7.5443 -0.000937567 0.00411206 0.00502763
2284 9 4 47.5455 30.9252 1.4873 0.0014386 0.00339178 -0.00179502
2130 8 3 48.8532 23.5572 0.51883 -0.00170654 -0.00189673 -0.00220181
1236 5 1 47.3566 23.8977 3.95424 -0.000354516 -0.00139346 0.0023137
670 3 1 52.3588 27.8324 6.58292 -0.00168725 0.00422974 -0.0031579
940 4 4 45.9042 27.3467 5.92597 0.000412259 -0.00516643 0.00255496
931 4 1 51.404 26.6018 4.7315 -0.00110409 0.00257545 -0.0041977
703 3 1 48.8185 26.4429 58.8342 -0.000165483 -0.00444601 -0.00813094
2213 8 2 48.0792 35.7725 5.60841 -0.0052468 0.0164397 0.00335242
760 3 1 49.0521 21.9172 0.774406 0.000375611 -0.00940878 0.000997152
2528 9 2 52.1397 29.6549 59.8731 0.0152001 0.000220005 0.0110142
2183 8 1 55.617 26.7344 6.62009 0.00588926 -0.00590785 0.00608978
2559 10 1 56.5418 28.0936 4.57614 -0.00388945 0.00258759 0.00530612
40 1 1 57.4954 25.6648 2.39367 0.0015096 -0.00239292 0.0032148
2560 10 1 54.4868 28.7836 2.54368 -0.00307097 -0.00328908 0.00276941
1808 7 4 57.1863 26.8265 0.746782 -0.00102292 0.000202573 0.000905586
2583 10 1 5.30301 28.7602 2.99887 0.0100676 -0.00636329 0.00228832
2352 9 4 1.74578 34.3342 2.83433 0 0 0
2588 10 4 1.7468 35.4259 4.64538 -0.00163499 0.00198661 -0.00376046
2490 9 2 0.524652 46.9533 3.74974 -0.00634518 0.0236023 0.00589545
328 2 3 17.6031 36.1405 4.2715 0.00984282 0.00721265 0.000835667
2245 8 2 21.2334 43.8548 6.5478 0.0113711 0.018985 0.000337543
2776 10 2 22.785 36.5436 7.1273 0.00824578 0.0027692 0.00672938
1483 6 1 20.2816 36.4007 1.76829 -0.00112291 0.00479414 -0.00236966
434 2 1 22.3803 30.5058 1.77292 0.00241388 -0.00794675 -0.00118334
1665 6 2 10.758 39.8135 0.430128 -0.0106527 0.00474018 -0.0086515
250 1 2 27.9393 18.5588 49.4522 0.016237 -0.0234815 -0.0300366
1535 6 3 17.4402 36.1471 7.53892 -0.00230463 0.00466585 0.0131234
1235 5 1 22.3957 36.4187 2.72057 -0.00247986 -0.000463147 -0.00271059
1327 5 1 25.6436 30.0029 5.06978 -0.00161451 -0.00192041 0.00296542
2770 10 2 26.8171 35.2284 8.14572 -0.00522059 -0.00205399 0.00668348
6 1 4 35.3494 33.3311 1.15729 -2.50104e-05 0.00194824 0.000549463
1514 6 4 29.2972 33.1448 59.1488 -0.00512883 0.000628611 -0.00351264
303 2 1 33.7645 39.248 6.3604 -0.00644108 0.0060504 0.0026846
2762 10 2 33.4863 28.4585 2.75821 -0.00424605 -0.0132751 -0.00237772
514 2 2 48.5886 24.2563 15.4021 0.0256496 -0.0119886 0.0257856
2810 10 2 44.9523 24.0821 9.72321 0.0151865 -0.0183549 0.0142606
199 1 1 42.8488 31.0661 1.98064 0.00126022 0.00127 0.00122005
893 4 1 43.3612 32.5219 59.7878 0.00654459 -0.00958467 -0.00156861
278 1 2 45.8301 26.0452 11.8483 0.00642072 -0.0128695 0.00979927
2638 10 1 39.5697 34.8187 6.92598 0.000860698 0.00152126 -0.000581762
1117 4 2 38.6611 29.4286 21.8407 -0.00272963 -0.0029596 0.0299743
2754 10 2 49.2573 36.4411 55.3275 -0.00330823 0.0113113 -0.0122175
1790 7 1 49.0777 30.8546 6.05848 0.00196365 -0.00329763 0.00234868
463 2 1 44.5183 31.3157 58.2493 -0.00151832 -0.00102423 -0.00581015
1295 5 1 48.192 31.3282 4.30378 -0.00270366 -0.00216276 -0.000526185
757 3 4 49.7295 34.4018 5.09409 0.000682521 -0.00344314 0.00148761
512 2 2 52.3284 38.4144 3.45118 -0.0217256 0.00186055 -0.00301546
1282 5 1 49.5297 29.7271 3.78919 -0.00269979 -0.00157945 -0.00187336
219 1 1 50.1134 31.88 3.22755 0.00142419 -0.00799712 0.00533428
2684 10 1 55.4154 32.4079 2.71137 0.000208549 0.00178388 0.00243951
387 2 4 54.1707 38.6937 1.33592 0.00256352 -0.00091407 -0.00602286
1391 5 2 52.1914 35.0672 5.22523 -0.00165506 5.06872e-05 -0.00322193
2820 10 2 27.5468 45.7376 48.3871 0.041606 0.0176356 -0.0260619
1368 5 2 56.1963 7.20289 10.2701 0.00270578 0.0103897 0.0109707
2518 9 2 29.1136 36.8211 51.3992 0.02953 -0.0134905 -0.0289002
509 2 2 16.6848 50.9433 28.8987 0.00791732 0.0198415 0.0481289
852 4 4 14.1434 40.7744 8.03075 0.00192732 0.00196783 0.00952744
1487 6 1 22.2243 42.786 5.51057 0.00639671 0.00867899 0.00372802
2335 9 1 16.237 43.8779 7.85108 -0.000217197 0.000563509 0.00444601
1065 4 1 14.0874 39.2435 1.79555 -0.00292733 -0.0104879 -0.00227276
2398 9 1 21.9708 45.8734 1.932 0.00714062 0.00388799 -0.00826725
1237 5 1 15.2559 46.3777 2.20025 -0.00305737 0.00503918 -0.00749182
1461 6 1 22.911 39.0896 2.31513 -0.00466417 0.00279558 -0.00310803
1168 5 1 23.8609 43.4783 5.25611 -0.00290809 0.00120917 0.000771523
881 4 1 23.5246 39.9761 1.88055 -0.00369495 -0.000608851 -0.000912797
404 2 1 24.6604 37.0069 8.57714 -0.00338568 -0.00305345 0.00238008
441 2 1 24.3351 41.3667 5.87206 -0.00152167 0.00102158 0.00297449
2367 9 1 26.3369 43.5277 4.02266 -0.00442456 -0.00190848 0.000452278
601 3 3 25.0158 41.3386 5.91368 -0.00259861 0.00719758 0.00710589
2369 9 1 33.2237 43.6967 4.89883 0.00186974 0.00447397 -0.00111025
184 1 4 40.3768 38.998 0.921102 0.007075 -0.00126366 -0.000474516
1268 5 4 32.2443 43.6867 1.20169 -0.000644057 -0.000446586 -0.00267714
1618 6 1 34.1523 37.9064 2.59149 -0.0013943 -0.00474845 -0.000976361
1299 5 4 32.6569 41.2676 5.62946 -0.00232889 -0.00190833 -0.00337758
702 3 4 40.1576 44.6107 1.89336 -0.000890911 0.00156989 -0.00321973
2223 8 2 32.4494 42.1515 55.6911 -0.0182322 0.0050679 -0.0144813
2313 9 1 40.4966 44.0908 4.60295 0.000917327 0.000762864 -0.0058512
1686 6 2 40.4394 40.2646 2.52433 -0.00641386 0.00341575 0.00388897
446 2 1 39.7166 46.8671 6.73183 -0.00155903 0.00539801 0.00828892
1545 6 1 47.1642 44.0713 3.74582 0.000515615 0.0103376 -0.00173129
301 2 1 50.9981 38.0987 0.361311 -0.00353096 0.00180646 -0.00423315
1837 7 1 44.8984 38.5 2.26254 -0.00345263 -0.00306868 -0.00447063
2212 8 2 47.2482 53.5241 5.77555 -0.00786499 0.0206728 -0.00211573
2397 9 1 56.8055 38.0932 4.63143 -9.75082e-05 0.00251427 0.00193625
2143 8 3 54.1742 42.3009 1.78571 0.000147516 -0.00263283 -0.00462453
2487 9 2 58.384 41.047 0.0127171 0 0 0
2531 9 2 57.9987 42.6625 1.07508 0 0 0
687 3 1 54.785 43.9035 2.25074 -0.00166924 -0.00446985 -0.000655884
568 3 1 54.5788 38.6664 5.9102 0.00338229 0.00405362 -0.000625105
584 3 1 57.2686 37.5512 0.864752 0.003959 -0.00168975 0.000406093
800 3 2 3.16359 42.3735 59.5474 0.00917294 0.016185 -0.0383573
2759 10 1 0.397422 38.5917 6.36886 0.00161503 0.00131658 0.00794365
2712 10 1 0.851169 45.1983 1.88268 0 0 0
2491 9 2 24.2238 55.7825 58.2447 0.0247461 0.0197557 -0.0069817
1469 6 3 11.5628 47.567 5.53962 -0.00133249 -0.00387152 -0.00167643
2696 10 1 10.9804 50.8961 6.921 0.000118996 -0.00100519 -0.00092808
797 3 2 7.0513 46.2075 57.4014 0.0110466 -0.0252758 -0.00461418
1916 7 2 27.4178 1.67923 59.3766 0.0151991 0.0244568 -0.00778682
9 1 1 14.4613 52.3198 1.13192 -0.007665 0.000371203 -0.000973999
769 3 4 19.6999 52.0893 58.6024 -0.00198113 0.00284778 -0.00430812
675 3 1 15.3322 45.7693 1.75904 -0.00417533 -0.00560781 -0.00416458
198 1 1 20.6492 50.4858 2.12715 -0.000548303 -0.00207681 0.00126985
1666 6 2 13.6639 39.1768 3.39687 -0.0104793 -0.0180467 0.00126756
326 2 1 14.2269 51.8746 4.95686 -0.00318969 0.00240477 -0.00272889
2546 10 4 28.1323 51.8879 6.81257 0.00108498 0.00233327 -0.000214995
2257 9 3 23.71 49.026 4.53322 -0.00603001 -0.0019023 -0.00230057
867 4 1 37.4769 47.6582 55.9258 0.00499116 -0.000126915 -0.00942057
1016 4 4 31.3178 48.7751 3.22699 -0.00349184 0.0019126 0.00354171
231 1 2 48.6889 28.0909 9.91477 0.0142666 -0.0359897 0.0077195
1713 7 1 41.4902 48.4176 2.63079 0.00104161 0.00140669 0.0023127
427 2 1 40.8543 41.752 1.90986 -0.000160132 -0.00857944 0.00199399
1844 7 1 48.0502 49.3251 7.27222 0.00250881 0.00175865 0.00190258
699 3 1 43.7354 45.4355 8.33399 -0.00700004 -0.00105525 0.00458329
1208 5 1 52.2907 49.6628 6.96998 0.00522441 -0.00447754 -0.00252107
1717 7 1 45.9906 45.6106 59.7803 -0.00120681 -0.00370948 -0.00374353
2492 9 2 39.6557 43.8121 4.14197 -0.0119992 -0.00259786 0.00529983
696 3 1 57.4507 45.7619 3.93525 0.00370939 0.000321274 0.0012319
2569 10 1 57.3724 49.4055 1.11213 0.0021807 -0.00179718 -0.00155191
2541 10 1 55.8948 51.4421 4.82466 -0.00234454 0.00329195 0.00381343
350 2 3 59.0934 45.5362 0.357337 0 0 0
525 2 2 59.6775 45.7685 0.295352 0 0 0
2575 10 3 54.399 45.9899 3.43338 0.000982797 -0.00541499 0.00032074
1075 4 2 1.88876 44.5355 10.3035 -0.0207373 -0.0308798 -0.0110636
1920 7 2 59.1852 41.5676 5.52084 0.00610541 -0.0120495 0.0162888
1958 7 2 2.00117 58.4317 3.71671 0 0 0
1624 6 3 0.235656 56.1033 7.26488 0 0 0
2742 10 4 4.09252 56.3356 2.75248 -0.00454739 0.0078801 0.000171222
1399 5 2 2.64574 4.36332 57.9259 -0.0471426 -0.0020567 -0.00194109
1664 6 2 7.32803 58.9258 4.26381 0.00433894 -0.0076007 -0.00392336
2585 10 1 9.26151 1.37125 0.773171 -0.00010252 0.00873218 -0.00222815
1222 5 4 13.113 55.2142 59.319 0.00144406 -0.000778231 -0.00393163
320 2 4 7.98536 53.7878 4.7001 -0.000955469 -0.00116849 0.00799068
792 3 2 8.5802 54.2481 9.30277 0.0108996 0.00431039 0.00404997
1589 6 1 13.3812 53.791 3.19888 -0.00229062 -0.00263816 0.00347967
2138 8 1 17.5365 57.2316 4.12939 -0.00590036 -0.00380995 0.00217038
749 3 1 21.4402 56.488 4.92586 -0.00173094 0.00772504 0.00175839
1888 7 1 15.8383 58.4441 2.51675 0.00105691 0.00266806 -0.00208694
955 4 1 19.3245 0.604184 6.65564 0.00275271 0.00550897 0.00199318
1927 7 2 19.7334 51.9498 59.3924 -0.00426389 -0.00718096 -0.00594379
118 1 4 14.5072 54.3961 4.35505 -0.00477966 -0.00026682 0.00511158
2411 9 1 30.2627 56.2832 2.76237 0.00342791 0.0051813 -0.000233922
1853 7 1 25.0103 59.9043 0.370025 0.00320951 0.00339337 -0.002649
870 4 3 23.9764 51.9076 0.851425 -0.00358323 -0.0064467 -0.0041958
1015 4 3 23.2597 52.2904 1.91787 -0.00466441 -0.00343722 0.000273613
22 1 1 25.9122 52.4312 57.786 -0.00307527 -0.00203145 -0.00604035
2802 10 2 18.5286 46.3681 54.0846 -0.0127181 -0.0158451 -0.018476
2070 8 4 28.5403 53.7745 0.742651 0.00381085 -0.00408379 -0.00698098
1281 5 1 32.3558 54.6111 59.8277 0.00303368 0.00336985 -0.00558941
1196 5 3 35.8505 58.7754 2.00256 0.00399097 0.00173336 -0.000258456
891 4 1 36.4946 52.1831 7.93283 0.000797726 -0.00467239 0.00251095
2029 8 1 37.622 2.23433 5.84539 0.00438367 0.00580935 0.0052109
1363 5 2 24.195 54.9303 10.0039 -0.013175 -0.00224101 0.00773751
2246 8 2 29.5084 3.48888 0.194632 -0.00917822 0.00934834 -0.00324729
2495 9 2 31.9842 50.3323 2.75164 -0.0057614 -0.00840864 0.00224167
2728 10 1 32.8295 0.172601 2.57245 -0.00400351 0.000838181 0.00396092
2184 8 1 39.4793 56.0191 8.4716 0.00223355 -0.00711191 0.00517037
1090 4 2 37.3641 13.8084 7.04128 -0.00907283 0.0314339 0.00128134
2561 10 1 38.946 59.1953 6.37867 0.00242704 0.00790466 -0.000942186
28 1 4 43.2748 54.2404 3.09802 0.000281821 -0.00561541 0.0015248
1616 6 1 42.671 59.1529 9.05053 -0.000637756 0.00660687 0.00427812
25 1 1 44.9668 56.9494 1.09385 0.000468621 0.00417387 -0.00335329
1076 4 2 34.0026 51.6789 10.9342 -0.0103404 -0.00367624 0.00734278
2505 9 2 51.6241 47.463 13.3452 0.00638451 -0.0106541 0.0145817
2587 10 1 47.7888 59.218 7.46661 0.0029247 -0.000946161 0.00312541
159 1 1 43.976 54.5191 4.4131 -0.00713713 -0.00569192 -0.000409484
948 4 1 47.2395 0.949998 6.79823 -0.00700241 0.00213755 -0.000831881
1510 6 1 45.9743 51.5559 1.85557 -0.000696632 -0.00349409 -0.00639951
521 2 2 48.2181 4.76971 11.4897 -0.000176154 0.0121197 0.0120784
2360 9 4 57.9239 57.3517 3.72763 -0.00291794 0.00452678 -0.00212809
1134 5 4 54.0379 59.0695 2.26261 -0.00384827 -0.00591449 -0.000124818
223 1 2 56.1399 54.6872 58.2806 0.0109239 0.00332145 0.00320267
2222 8 2 25.1715 23.5584 57.5973 0.0426411 0.0437934 -0.038346
2788 10 2 0.477771 3.98095 13.9264 0 0 0
2717 10 1 7.84017 2.88584 14.4986 0.00615468 -0.00318149 -0.00075356
1539 6 1 4.8986 3.59001 10.6515 -0.0104286 0.000492714 0.0125045
1688 6 2 0.942662 54.0399 10.4378 -0.0275913 0.00482278 -0.0124319
268 1 2 5.04308 6.96895 11.8296 -0.023823 0.0183094 -1.28951e-05
1322 5 1 11.2289 57.7007 10.3396 0.00911538 -0.0117623 -0.0100758
436 2 1 16.5067 59.8928 16.2123 -0.00214963 -0.00238873 0.00348651
59 1 3 13.9766 2.0318 11.3357 -0.00254683 -0.0010209 -0.00180658
1489 6 1 14.1568 4.75992 10.8076 -0.00179322 0.00203231 -0.00179491
2136 8 4 12.9592 7.25685 13.8688 -0.00620604 0.000707015 0.00142734
486 2 4 20.2474 1.64863 13.2573 0.0015766 -0.00391837 4.37703e-05
1127 4 2 18.9773 55.5985 59.3805 0.00388798 -0.014402 -0.0217303
2233 8 2 18.5641 21.8914 6.4446 0.00212041 0.0320643 -0.0124527
2073 8 1 26.1745 57.8963 9.89363 0.00255694 -0.00508498 -7.98923e-05
2324 9 3 30.9222 4.73995 15.03 0.00418461 0.00181418 0.00503476
371 2 1 25.5125 3.98046 7.93054 -0.00118004 -0.0023546 -0.00324596
1538 6 1 22.2272 57.5744 10.8675 -0.00182486 -0.00795661 -0.00101212
390 2 1 26.4882 4.5354 9.87828 -0.0029099 0.00442074 -0.0017537
2063 8 1 21.8551 6.9019 10.8814 -0.00595139 0.00352099 -0.00316668
1433 6 1 30.3483 7.30878 11.2114 0.00373566 -0.00033463 0.000653681
2529 9 2 36.3846 5.73561 12.0923 0.0219634 0.00829578 0.00305998
464 2 4 26.1148 4.60805 6.53474 -0.000875372 0.00802264 -0.00203562
1305 5 1 26.4056 2.48803 6.70077 0.00644125 -0.00535421 -0.00857053
2536 9 2 24.5789 11.1684 4.15189 0.000542314 0.020498 -0.0109226
560 2 2 32.2878 58.914 59.3677 0.0134707 -0.00318606 -0.0238564
394 2 3 35.3083 3.01872 11.581 -0.00197002 -0.00324512 0.00657381
2274 9 1 39.0378 3.25229 17.8041 0.00398675 0.00471923 0.00618565
1956 7 2 34.3246 5.17059 11.2885 -0.00553686 -0.0033507 -0.00670859
329 2 1 43.1761 3.72189 10.9927 0.0118206 0.00379902 -0.00668731
824 3 2 33.9581 3.1679 22.187 -0.0116577 -0.00378962 0.0157492
482 2 3 41.5975 0.858403 12.7539 -0.00234733 -0.00317502 -0.001802
167 1 1 39.1461 7.85148 12.25 -0.00164346 0.00188438 -0.00287839
1957 7 2 26.5339 5.08637 2.76515 -0.0230194 0.00741337 -0.0157588
1722 7 4 51.6154 4.49765 12.9161 0.00418396 0.00120596 0.0031399
2556 10 1 50.167 3.81181 13.1354 -0.00284453 -0.00033926 0.001296
2617 10 1 51.2286 3.11676 12.5309 0.00178285 0.00352199 0.000303413
607 3 1 51.2408 0.658573 8.7705 -0.00220554 -0.0025887 0.00082709
2311 9 1 53.152 0.39571 14.028 -0.000980828 -0.00568253 -0.00291812
2727 10 1 52.858 2.46078 8.09508 -0.00106167 0.00205858 -0.000951631
1744 7 4 52.2816 1.92909 8.75435 0.000103613 -0.00354468 -0.00247328
1098 4 2 58.4798 2.72832 7.99122 0 0 0
2195 8 1 53.9105 5.93804 12.0359 0.00403989 -0.00391113 0.00242257
2795 10 2 50.2519 3.20016 15.1799 -0.00593547 0.00101727 0.0087443
322 2 1 2.63716 9.44654 12.3145 0.0038373 0.00292148 -0.000476296
926 4 1 1.57144 13.4307 12.0112 -0.00926206 0.0038023 0.0137199
1380 5 2 58.0918 5.57389 8.43695 0.0152724 -0.0104791 -0.0191559
453 2 4 21.3067 11.6501 12.5988 0.00918363 0.00137066 0.00609412
2748 10 1 21.2273 12.7783 11.5119 0.00234316 0.00421903 0.00134427
153 1 1 19.2154 15.7472 12.0138 -0.00150445 0.00470289 -0.00163649
2432 9 1 15.8166 12.659 9.44343 -0.000179632 -0.00184832 -0.00193893
2050 8 1 14.6168 10.2651 7.16566 -0.00500731 -0.00381767 -0.00295653
168 1 1 19.2557 11.8894 13.2706 0.0015647 0.00213734 -0.00204026
1350 5 2 20.0464 0.801078 2.43013 -0.00287741 -0.0139347 -0.0171032
536 2 2 15.1504 12.095 11.9844 -0.0232546 0.00528479 0.00513332
1502 6 1 23.0993 11.3808 5.74229 -0.00158862 -0.00249474 -0.00702398
1192 5 1 26.1768 11.64 6.29896 -0.00481918 -0.000423082 -0.00311928
515 2 2 30.1548 9.17619 17.3742 -0.0143019 -0.00488754 0.0129837
2235 8 2 33.0666 3.45839 14.8168 -0.00290994 -0.0141562 0.00864455
1213 5 1 34.061 6.40872 16.8841 -0.000726956 -0.00261418 0.00780121
104 1 4 35.6623 13.0241 12.9443 -0.000335817 0.00364369 0.0016929
2277 9 1 31.6367 8.65601 11.5008 -0.00463538 -0.00726367 4.70725e-05
2357 9 1 35.3365 15.8026 10.2861 0.0020514 0.00729797 -0.00495383
2520 9 2 41.1968 8.45678 12.2826 0.00520448 -0.00242381 0.00122682
2118 8 1 38.8713 4.96415 12.5458 0.00202947 -0.00568215 -0.000556178
1771 7 1 43.3416 10.7178 14.2433 -0.00222035 -0.00857916 -2.25946e-05
492 2 1 47.773 13.7306 12.6253 0.00132624 0.00475748 0.00232139
106 1 1 52.0153 8.13953 10.0191 -0.000456621 0.000148385 0.00440647
2467 9 1 53.2482 10.8579 11.0117 -0.00494127 -0.000109972 0.00181802
26 1 1 43.5535 13.0324 10.7793 -0.00468434 -0.00350842 -0.000230759
1774 7 4 48.4603 8.27225 13.2618 0.00438398 -0.00579151 -0.00228833
980 4 3 51.7103 8.12685 14.7655 -0.000958257 0.00090853 0.00589768
1062 4 2 48.0694 3.57952 13.2713 -0.00614192 -0.0145404 0.0042173
2488 9 2 54.0897 5.68682 4.93347 -0.0168327 0.0132682 -0.021165
2105 8 1 53.9833 8.10783 9.80603 0.000738076 -0.00325297 0.00520453
1909 7 1 55.2489 9.78194 11.1516 -0.00275086 -0.000634812 -0.00130958
2670 10 1 56.6531 11.0549 9.31191 0.00135661 0.00345104 0.00217325
526 2 2 57.6423 10.2839 12.0644 0 0 0
336 2 1 59.3417 12.1997 10.0517 0 0 0
2667 10 1 54.7179 10.666 14.1051 -0.00126063 -0.000732531 -0.00255084
290 2 4 3.52922 22.2691 11.1635 0.000586752 0.00791071 0.00374084
273 1 2 1.40676 16.8754 13.5764 0 0 0
2577 10 4 1.74793 18.4327 12.2029 0 0 0
2597 10 3 2.28459 21.1757 9.713 0.00199027 -0.00258095 -0.00306076
726 3 4 8.05484 16.2871 11.0496 -0.000618362 -0.00017753 -0.00728272
2818 10 2 7.90865 15.0954 8.13316 -0.000389224 0.00780309 -0.02222
129 1 1 17.8052 19.9809 6.82842 -0.0013871 0.00501207 -0.00312469
2291 9 1 16.4036 17.6213 11.1348 -0.00366972 -0.0024495 -0.000230719
246 1 2 12.8093 20.0116 16.014 -0.0108816 0.000789348 0.00792527
1207 5 1 19.399 18.0847 7.59061 -0.00168104 -0.00166514 -0.00753499
2494 9 2 22.3865 22.867 2.99727 0.00208619 0.00457028 -0.0196182
2231 8 2 40.105 23.7035 11.6079 0.0246093 0.00575752 0.00787775
2381 9 3 23.7451 20.1248 9.83491 0.000761848 -0.00203721 0.00383759
412 2 1 30.8188 18.6656 9.42925 0.00417904 0.00395839 -0.00131901
2334 9 1 28.5813 18.0367 11.7223 0.000770181 0.00338654 -0.000197096
2366 9 1 29.5725 22.0765 17.0291 0.00161884 0.00285004 0.00486993
605 3 1 24.9986 18.0059 9.1785 -0.0030398 -0.000249228 -0.00562843
373 2 1 33.4604 23.8355 8.88954 -0.000370205 0.00402308 0.00153668
1269 5 1 37.8922 26.0425 14.4036 0.0117827 0.00731849 0.00649945
2113 8 1 34.6467 19.4035 7.91299 0.00474139 -0.00205427 -0.000456421
150 1 1 38.649 20.7408 9.12603 0.00402736 0.00326063 0.00116251
2079 8 4 30.5412 19.847 14.3729 0.000368738 -0.000375923 8.89492e-05
2410 9 1 32.0438 17.0836 8.19599 -0.0031086 0.000248669 -0.00236331
994 4 4 33.7627 14.7909 14.5436 -0.00302294 -0.00171635 0.00283032
565 3 3 40.3799 12.4201 12.4179 0.00813122 -0.00602328 -0.00215787
187 1 1 37.3116 16.7633 13.2349 0.00301455 -0.00668915 0.000129814
86 1 1 38.0745 19.0117 11.8344 -0.000630123 -0.000463068 0.00221371
154 1 1 41.7 20.1123 5.85681 0.00039544 8.94674e-05 -0.0069541
958 4 3 41.5614 19.1887 7.88962 -0.00100836 -0.00211163 -0.0064131
174 1 1 42.632 15.4612 11.6678 -0.00480549 -0.000311512 0.000616883
774 3 1 43.0736 19.4706 12.9968 -0.00150446 -0.00352816 -0.00106495
1738 7 3 45.5435 14.3828 10.8217 0.00135748 -0.00144537 -0.00764843
496 2 3 37.5806 17.1535 11.7606 -0.00340845 -0.00624648 -0.0064584
2127 8 1 51.7447 15.925 15.3452 0.00357154 -0.00096066 -0.00134874
1008 4 4 43.2493 20.7239 10.881 -0.00800894 -0.00149152 0.00183043
1558 6 4 52.4079 21.6466 12.3239 -0.000940557 -0.00163598 -7.14683e-06
855 4 1 50.0887 22.3384 14.0994 0.0004547 0.00235843 -0.00149557
2351 9 1 51.5324 14.3333 13.0443 0.00314237 0.00140493 -0.00121271
1105 4 2 2.7778 17.1017 4.57727 0.0144131 0.00418087 -0.0104519
843 3 2 52.681 21.6375 6.772 -0.0109444 0.0154952 -0.019354
145 1 1 54.3869 19.1911 7.86976 -0.00177606 0.00139771 -0.00191382
2703 10 1 57.7819 17.5352 10.2302 0.00101009 -0.00329352 -0.00337533
611 3 1 59.8715 16.6897 14.7952 0 0 0
504 2 2 1.28889 28.0648 9.24249 0 0 0
1626 6 2 0.677955 23.4086 12.9437 0 0 0
1005 4 1 15.3135 32.7134 15.9808 0.000723242 0.00738914 0.00554931
961 4 1 14.6531 26.1162 9.57603 0.00225052 0.00332062 -0.00214124
1501 6 1 12.7981 29.237 7.3341 -0.00410971 0.00129213 -0.00148933
1769 7 1 13.2961 32.2658 15.2962 -0.00485736 0.00665086 0.0068747
340 2 1 13.9579 30.7196 14.8781 -0.00302201 0.00495293 0.00303161
1148 5 1 20.0276 25.5809 11.6413 -0.00183323 -0.00268129 0.0025257
2498 9 2 16.6963 27.9084 17.4031 -0.00768038 -0.000676894 0.00927881
257 1 2 32.616 36.8476 58.8922 0.0284771 0.0175756 -0.0232905
2615 10 1 30.85 26.3978 8.70097 0.00281273 0.00100268 -0.00192153
1830 7 4 25.6871 24.3664 11.1869 0.000495768 0.00018563 -0.00213624
1737 7 1 27.3422 26.4912 6.88221 0.0036387 -0.00506575 -0.0114531
1593 6 1 33.5603 26.3173 8.53552 -0.000793656 0.0047677 -0.000760438
2310 9 1 33.27 26.3883 13.1727 0.000256084 0.00411394 -0.000635225
1521 6 1 31.9408 30.3943 11.6269 -0.00147722 0.00389386 -0.00133753
287 2 1 37.575 29.3269 8.9235 0.00575757 0.00200073 -0.00414401
882 4 1 33.5389 29.631 12.1641 -0.00453722 0.00224749 0.00239201
256 1 2 18.2825 25.755 11.8648 -0.0248553 0.00475173 -0.00413564
2217 8 2 29.9531 13.899 8.14035 -0.00523471 -0.0299221 -0.009186
2100 8 4 39.2603 29.4961 8.46064 0.00352835 0.000757603 -0.00116435
2161 8 1 39.9866 27.38 15.4643 0.00244781 0.00102584 0.00521899
1390 5 2 36.7371 31.9584 18.9977 -0.0085371 0.00403376 0.00930795
93 1 1 40.8198 27.7003 12.793 -0.00331558 -0.00291538 -0.00129094
2279 9 1 37.4438 21.8419 13.8103 -0.00210774 -0.00366584 -0.0022399
1189 5 4 51.6565 26.2822 15.5038 0.00377973 -0.00121548 0.00517383
2733 10 1 50.789 29.2178 7.96646 0.00322896 0.00601855 0.000157957
985 4 1 46.7945 22.6336 9.86482 -0.00232233 -0.00137759 0.000286333
1999 8 1 49.59 27.5015 6.03584 -0.00190754 0.00375554 -0.00504771
2249 8 2 41.6158 26.3176 6.968 -0.019753 0.00447349 -0.00918835
1477 6 1 53.3986 24.3393 7.57577 0.00339047 0.00386331 -0.00266897
1697 7 1 53.3993 24.219 13.3487 0.00188844 0.00128213 0.00231586
508 2 2 59.6874 28.5706 9.49677 0 0 0
2232 8 2 58.4871 24.0095 8.20729 0 0 0
1997 8 1 58.8592 24.7872 9.28334 0 0 0
2797 10 2 59.2695 24.4339 10.1845 0 0 0
2022 8 1 54.4113 23.0755 8.90065 -0.000665132 0.000423308 -0.000696715
2798 10 2 54.6036 21.6841 10.8103 -0.0053993 -0.0111496 -0.0059491
1675 6 2 10.0841 32.3922 13.818 0.0147939 0.0178819 0.00117583
558 2 2 0.125292 35.4179 12.5689 0 0 0
2219 8 2 15.1329 28.3802 13.1746 0.00419715 -0.0115834 0.00920939
2344 9 1 12.1337 31.458 14.232 0.012962 -0.000157866 0.00410858
938 4 1 10.5699 32.0416 15.3586 0.00479457 -0.0101288 0.00234325
1177 5 1 17.1306 36.7006 13.6857 -0.00108683 0.00857941 0.00228261
1884 7 4 20.9579 38.9704 13.3859 0.000356312 0.00572579 0.00334567
2453 9 1 18.2142 39.2328 8.21339 0.00110065 0.00379355 -0.00179433
245 1 2 23.4535 29.5216 23.5371 -0.00152308 -0.00439228 0.0174118
2077 8 3 19.4037 32.7035 12.7135 -0.00652867 0.00311918 0.000603342
903 4 1 26.9305 35.0987 11.1813 -0.00496016 0.00536241 0.000187639
1625 6 4 33.4833 30.4764 10.8793 0.00773082 -0.00212683 -0.00424612
1084 4 2 34.4921 48.9648 24.3469 0.00985103 0.026985 0.0268181
47 1 1 34.1154 31.517 10.3079 -0.000960764 -0.00299792 -0.00194849
669 3 4 29.9623 30.8214 12.3367 -0.00549747 -2.18032e-06 0.000610379
2024 8 4 32.1436 33.5132 13.7258 -0.00584652 0.00109749 -0.000916558
1509 6 1 45.4346 27.8331 18.9445 0.00507828 -0.00815965 0.00947956
2749 10 1 39.5746 39.3605 11.9542 -0.00408937 0.00871154 0.00114688
2345 9 1 41.0789 34.672 10.1115 -0.00147717 -0.000536012 -0.00241253
1223 5 1 39.8254 29.8435 10.0519 -0.00254401 -0.000828973 -0.00638244
2646 10 1 49.5074 34.014 10.6837 -0.00247953 -0.000487817 0.00488725
2103 8 1 43.285 34.5547 9.99005 -0.00505129 0.00284644 0.00386494
1337 5 1 48.93 32.7902 9.38742 -0.00017288 -0.00178718 0.00310011
745 3 1 50.0506 35.6212 11.3898 0.00727991 -0.00229297 0.0069933
2160 8 1 47.7486 36.9424 12.6127 0.00322525 0.00189915 0.000237737
423 2 1 46.0265 30.8115 12.892 -0.0031586 0.000182108 -0.000423372
2145 8 4 47.8376 35.3944 13.2489 0.00575539 0.00321085 -0.00203292
626 3 1 51.9204 31.0214 9.87873 -0.000593956 0.00083602 -0.00222215
2690 10 1 52.8498 34.8773 7.28657 0.00364651 0.00326774 0.000530316
2430 9 1 55.2763 31.1753 10.1275 -0.00133494 0.00321745 -0.00215344
1532 6 1 53.4727 31.8621 10.3576 0.000439021 -0.00223282 -0.00587336
1448 6 4 56.0119 35.8063 15.5053 -0.006679 -0.000339988 -0.00176007
2701 10 1 0.911695 43.7344 11.8842 0 0 0
2260 9 1 2.50243 44.7196 14.1748 0 0 0
653 3 1 4.86385 39.3558 8.27494 0.00458244 -0.00917727 0.00222713
1906 7 3 4.94084 42.8553 12.5493 0.00411659 -0.000709277 0.000844215
207 1 1 13.6274 44.1136 11.724 0.00293482 -0.000305401 0.00427393
921 4 1 11.7369 42.0473 9.01856 -0.00499275 0.00176493 0.00221656
1038 4 4 8.69309 42.4152 13.8484 -0.0128937 0.00714568 0.00261868
563 2 2 13.0925 31.4295 16.2672 0.0138495 -0.018348 0.00258866
2228 8 2 16.491 46.6737 20.1548 0.00579157 0.0155857 0.0219295
1659 6 2 12.986 42.9801 18.9239 -0.00294888 -0.000122952 0.0230961
2791 10 2 29.6034 51.0085 13.5617 0.0229071 0.0161203 0.010054
2128 8 1 22.3176 42.2815 12.5975 0.000803487 0.00251404 -0.000709483
2603 10 1 20.0964 39.0071 13.9062 0.000163709 -0.00227151 -0.000986542
1030 4 4 19.6615 42.0715 12.7463 -0.00418482 0.00111169 0.00128415
2135 8 1 26.8757 40.6828 11.2063 0.00150517 0.0024783 -0.000809972
1584 6 1 20.7022 42.5725 11.0582 -0.00442902 0.00300737 0.00209854
19 1 1 25.8982 41.6187 11.372 -0.00411892 0.00192318 0.000380071
1330 5 1 27.2989 38.9889 11.4103 -0.00437117 -4.09475e-05 0.000333927
2139 8 1 33.2958 41.5996 16.2915 -0.00295677 -0.0050999 0.00587805
520 2 2 34.1468 38.401 57.6788 -0.00120201 0.000738799 -0.0224274
2081 8 1 35.2789 42.4034 14.7549 -0.00469369 0.0088706 0.000361285
1729 7 3 46.4957 37.4184 8.45745 0.00465369 -0.00233393 -0.00108822
1894 7 1 37.6577 43.891 14.3754 -0.00275532 0.00211312 -0.00023757
1026 4 1 47.706 41.0865 11.7499 0.00758677 -0.00266409 0.000411776
2004 8 4 47.8938 43.1815 11.1993 -0.00446337 -0.00259829 0.00372789
1610 6 3 47.6959 36.3219 16.6094 -0.000126726 -0.00469649 0.00480963
1273 5 1 49.4335 35.081 6.99735 0.00109428 -0.00558168 -0.00226445
2172 8 1 44.0448 43.0812 9.84209 -0.00705935 -0.00259223 0.000134787
1022 4 1 49.1752 35.4078 10.1568 -0.00171214 -0.00567624 -0.00559972
2206 8 2 49.3664 41.591 7.93264 -0.00984992 -0.00763466 0.00232049
1429 6 1 58.8838 44.5929 9.55929 0.00241983 0.00471746 -0.00080173
2666 10 1 53.7328 42.2647 13.246 0.00134049 0.00440052 -0.00327788
1590 6 1 57.7917 39.5331 12.7218 0 0 0
2553 10 3 59.7062 43.8516 11.0836 0 0 0
1988 8 1 58.0967 43.7765 15.2877 0.00165779 -0.00148471 0.00114243
377 2 1 0.00464325 48.6556 12.3776 -0.000668452 0.00534064 -0.000529009
959 4 1 1.70151 46.9187 7.79658 0 0 0
1805 7 1 3.77149 47.8614 12.0292 -0.00341416 -0.00271798 0.00710732
2058 8 1 7.20908 50.4805 11.184 0.000293831 -0.00791244 -0.00708995
2530 9 2 57.8464 47.161 10.8454 -0.0198916 -0.0106753 0.00432096
2698 10 4 14.1205 50.4295 11.2298 0.000601313 0.00419241 0.000116041
473 2 3 9.0456 53.0905 15.6197 -0.00197107 0.00266788 0.00322446
2187 8 4 14.2188 42.3087 10.3559 5.26264e-06 -0.00835162 -0.00439049
541 2 2 10.1302 43.5639 18.5738 -0.00246398 -0.0132503 0.0223552
589 3 1 23.5296 44.807 4.29059 0.00505083 -0.00192775 -0.00898102
366 2 1 17.9369 50.3917 9.66652 -0.00193713 -0.00346266 0.00185884
62 1 1 24.5408 52.5217 8.95251 -0.0029923 0.00678081 -0.00144639
2374 9 4 29.4319 49.6027 7.36235 0.00136984 4.90978e-05 -0.00555549
976 4 1 30.1121 43.2422 5.91899 0.0080148 -0.00428123 -0.0149322
2745 10 1 30.1401 52.3113 9.74591 -0.00273934 0.00143895 0.00310361
422 2 4 30.2797 52.0684 16.2683 -0.000811467 0.00707747 0.00775522
2106 8 1 36.3338 50.0187 10.3104 0.00528319 -0.00390199 -0.00357691
1692 6 2 22.9705 50.871 10.6334 -0.0203178 0.00494319 -0.0063026
2509 9 2 39.6596 50.7398 9.79869 0.00235525 0.00514286 0.00388078
1851 7 1 41.1779 50.3583 14.4891 -0.00173857 0.00204774 9.39396e-05
991 4 1 41.9761 50.7763 13.2592 0.000866085 0.00079298 -0.00122622
972 4 4 46.6856 47.3625 8.49589 -0.00148705 -0.00127381 0.00132253
194 1 1 45.2261 48.0539 9.71219 -0.0022984 -0.000278262 0.000589803
1229 5 1 45.1244 50.6405 16.0069 -0.000507571 0.000929716 0.00312543
1765 7 1 47.29 42.4517 11.7918 -0.00204975 -0.00546597 0.00187094
1097 4 2 53.4579 54.9328 11.2204 -0.0102221 0.000178892 0.00686247
532 2 2 37.3911 40.6411 2.60878 -0.0186909 -0.0135146 -0.0224124
2812 10 2 53.394 47.7562 8.46282 -0.000709384 -0.022824 0.00169999
2400 9 1 53.2555 44.3308 8.31898 0.000239223 0.0025829 -0.000615688
1439 6 1 55.993 49.3362 11.9981 0.00208522 0.00295033 -0.00130381
965 4 1 57.5458 51.8668 11.5276 0 0 0
2611 10 1 54.955 48.5743 13.454 0.00207348 -0.00217998 0.000656462
177 1 1 11.4068 50.7099 13.9152 0.00173329 -0.0105124 0.00644703
2668 10 1 11.8278 56.1605 11.3423 -0.000529137 -0.00134756 0.00480114
617 3 1 7.5742 57.6289 10.8187 -0.00176297 0.0107338 0.00562166
1440 6 4 10.5573 54.645 14.6531 -0.00200461 -0.0035072 4.10515e-05
135 1 1 16.1826 53.1522 10.5775 0.00804806 -0.00485721 -0.000149483
179 1 1 11.5743 55.6698 11.6307 -0.00461237 -0.000708485 -0.00126502
1205 5 1 14.2034 56.1982 10.4918 -0.00488615 0.000339362 0.0033415
2604 10 1 19.4703 57.0632 8.64216 0.00020258 0.00393593 -0.00123967
1854 7 4 13.6592 56.7762 11.4746 -0.00689347 0.00391917 -0.00145393
718 3 1 24.9366 52.1138 10.8123 -0.00310576 -0.00124183 0.00629992
1454 6 1 27.8821 57.4721 17.1068 1.84054e-05 0.00142065 0.00462958
2008 8 1 21.3323 59.0899 12.0476 -0.00566666 0.0017475 0.0017012
1408 5 2 19.3622 54.0096 10.2232 -0.0150253 -0.00306192 -0.0028667
331 2 1 33.9065 52.6158 12.4967 -0.00163788 -0.00745977 0.00756125
225 1 2 33.0456 5.71153 15.4959 -0.00882919 0.0122095 0.00934362
1114 4 2 35.2894 51.1283 7.05677 0.00489523 -0.0150467 -0.00293152
2146 8 1 39.9683 56.0476 13.683 0.00638816 0.00382218 0.00215895
1982 8 4 33.584 59.3314 8.63921 0.00169872 0.00732763 -0.0048159
2772 10 2 41.446 55.6995 8.99223 0.0107817 -0.00268462 -0.00117117
1202 5 4 32.7295 57.8948 14.6991 -0.00305373 0.00132625 0.000298437
2419 9 1 28.8529 55.5496 8.49628 -0.00543544 0.000365111 -0.00130022
567 3 1 35.2708 57.9352 5.12021 -0.0023359 -0.00110497 -0.00763233
1928 7 2 44.0593 52.0493 14.6554 0.00432251 -0.00970357 0.00811643
1642 6 2 41.1118 39.4329 22.3731 0.000968946 -0.0289255 0.0195342
725 3 1 44.0574 53.6032 13.9943 -0.00092701 0.00187297 -0.00170919
896 4 4 51.0745 2.07069 9.34159 0.00670143 0.00610075 0.00101974
2303 9 1 51.5349 56.7597 11.129 -0.000788482 0.00105947 -0.00327098
1869 7 1 46.4911 54.7432 12.8526 -0.00296373 -0.000360606 0.00109171
1784 7 1 49.5152 59.2925 13.7569 -0.00403736 0.00155263 -0.0010325
1089 4 2 45.9975 48.9798 7.22685 -0.012935 -0.0141951 -0.00529911
527 2 2 41.5349 3.78114 6.25573 -0.00994637 0.0176464 -0.0107373
1228 5 1 53.1888 56.9891 9.69115 0.00486668 -0.00112812 -0.000668054
83 1 4 53.7314 54.245 11.0247 -0.00147319 -0.00126167 0.00072927
2089 8 1 57.1728 59.7158 10.0458 0 0 0
1627 6 1 57.7021 53.0184 11.7168 0 0 0
2721 10 1 59.132 55.4719 12.4388 0 0 0
2140 8 1 58.5751 53.005 11.289 0 0 0
2074 8 1 56.4559 54.7903 14.7995 -0.000158904 0.000796773 -0.00118204
864 4 1 56.6803 58.4091 16.9139 0.0031693 -0.00416789 0.0026696
50 1 4 1.64431 5.18743 18.2259 0 0 0
2124 8 1 0.943841 7.35431 20.4733 0 0 0
1049 4 1 2.69652 2.70796 21.9584 0 0 0
2252 8 2 0.123491 1.86645 15.2008 0 0 0
169 1 3 5.20227 59.841 18.6824 -0.00424865 0.000947019 -0.00984044
2713 10 1 3.24745 59.7929 13.4062 -0.00891356 0.00135484 0.000807073
547 2 2 56.1303 0.190265 25.1726 -0.0159132 0.00675725 0.0114499
2764 10 2 21.4378 8.55108 16.4341 0.0136446 0.00824564 0.00220803
131 1 1 9.99579 3.65591 18.6372 -0.00600841 -0.00249751 0.00567587
2447 9 3 9.59053 59.0617 14.1827 0.000368431 -0.003731 -0.00703628
1953 7 2 18.3489 4.39195 12.7274 0.0168964 -0.00284955 -0.00595433
727 3 1 9.20711 59.8765 18.7634 -0.00429535 -0.00236283 -0.00742035
737 3 1 13.2721 7.34971 12.5057 0.00214697 0.00139797 -0.0122128
1091 4 2 26.6745 16.1591 25.8184 0.0136185 0.0239357 0.0186496
2710 10 1 19.3343 2.62716 17.4946 0.00770805 -0.00525124 0.00438528
962 4 4 22.3512 0.919855 22.5176 0.00398798 -0.000670054 0.000456444
367 2 1 12.0778 3.29928 15.3559 -0.00711732 0.00269558 -0.00424812
57 1 1 26.7646 4.60555 16.8501 -0.00159971 -0.000743076 0.00340512
393 2 1 27.2207 3.36892 21.9503 0.00185011 -0.00240269 0.00398486
2268 9 1 30.2648 3.11314 22.5222 0.000686701 -0.00389247 0.00460794
1796 7 4 31.3277 7.2979 16.7468 0.00290391 0.00743719 -0.00315289
94 1 4 35.8427 7.80594 19.1489 0.00598192 0.00811826 0.00496639
1212 5 1 32.4136 0.469244 16.0639 -0.00251299 0.000232384 -0.001995
1443 6 1 29.8634 2.15199 14.513 -0.00397096 0.00111895 -0.00111793
79 1 1 31.2364 58.989 15.8604 -0.00387321 -0.00595003 -0.00277718
1298 5 4 31.7123 0.801667 19.1228 -0.00354612 0.0009586 -0.00196783
949 4 3 44.5599 0.895001 18.4208 -0.000149771 -0.00272952 0.00360686
932 4 1 40.761 0.225776 25.0884 0.00344875 -0.0020192 0.00563971
15 1 3 41.3456 3.70777 16.4246 -0.00105376 -0.00110992 0.00125013
895 4 1 42.3042 59.389 21.0674 0.00135074 -0.00382256 0.00352435
1003 4 1 37.6788 4.74824 14.8185 -0.00206015 0.000613042 -0.00420727
689 3 3 40.2271 59.7417 15.4715 -0.000885916 -0.00667162 -0.002625
2006 8 1 44.2604 59.6404 15.6064 0.00311835 -0.00198213 -0.00530837
2046 8 4 42.2871 3.07731 19.3347 -0.0031486 -0.000816411 0.00165651
1617 6 1 51.5992 6.21246 14.8983 0.00097822 0.00446095 -0.000177793
2059 8 1 51.2669 0.499813 16.9168 -0.00241432 0.00631054 0.00275681
2626 10 1 46.4093 3.61848 16.2271 -0.00348732 -0.00166178 0.000177407
2016 8 1 51.1515 4.71914 20.3144 -0.00289607 -0.00320812 -0.00211334
148 1 4 45.6025 59.1471 19.6999 -0.000893939 -0.00527683 -0.00165782
1203 5 1 44.7772 3.52035 21.2322 -0.0100002 0.00246857 0.000236165
850 4 1 46.6912 2.02374 20.5533 -0.006295 -0.00142673 -0.00153778
1002 4 3 0.934613 5.90571 22.3324 0.00236379 0.000733869 0.00747017
34 1 1 55.7209 2.02725 15.4761 -0.00072996 0.00125234 -0.00217521
2725 10 1 59.0802 0.987784 15.5295 0 0 0
610 3 3 58.764 7.25621 16.8172 0 0 0
2565 10 1 55.3487 1.36148 16.3502 0.00201993 -0.00182019 0.00201962
2755 10 1 54.9068 60.0151 19.7495 0.00157619 0.00724217 0.00115941
1753 7 4 52.5428 4.25465 22.5085 0.000619682 -0.00155516 0.00421085
2709 10 4 4.32058 9.90951 18.1191 6.88561e-05 0.00403003 0.00311347
214 1 3 2.38546 13.2716 15.4246 0 0 0
2121 8 3 0.453045 13.706 22.0152 0 0 0
2082 8 1 1.27319 12.9536 16.9868 0 0 0
2032 8 1 2.71163 10.7487 21.0626 0 0 0
334 2 4 0.247983 14.6843 22.3362 0 0 0
1506 6 4 3.46469 10.3658 13.2325 0.0066125 -0.00637409 -0.0057136
114 1 1 5.65522 13.6835 15.6457 0.00339758 0.00325947 0.00470274
1881 7 1 0.452079 10.5916 18.0888 -0.00735726 -0.00171922 0.00709551
1349 5 1 3.19492 12.3614 21.978 -0.00100502 -0.00559919 -0.0105311
1061 4 4 13.2739 9.46436 17.7051 0.00465213 0.00364801 -0.00384913
438 2 3 10.4905 11.826 17.862 -0.0027222 -0.00136472 -0.00102032
10 1 1 16.8034 17.2189 13.7879 0.00388374 0.00473541 -0.00473208
36 1 1 7.66194 11.7069 16.9018 -0.000951279 -0.00653433 -0.00300639
1109 4 2 21.6962 22.6356 17.5325 0.0161912 0.0184328 0.00503851
1136 5 4 12.7761 16.1766 20.3693 -0.00296975 0.00643613 -0.00119286
2253 8 2 17.426 5.78977 31.6763 0.0117266 -0.0179653 0.0201331
2416 9 4 17.4654 13.2741 18.16 -0.000247648 0.00348081 0.00411512
943 4 1 17.4822 10.2244 18.9457 -0.00209126 -0.00180821 0.00359814
739 3 1 16.2559 8.65848 18.5895 -0.00195041 -0.000966762 -0.00155876
928 4 4 25.7284 10.1245 19.6639 -0.000711652 -0.00201716 -0.00142753
433 2 1 28.6089 6.70208 16.5155 -0.00133497 -0.0161455 -0.00141764
1969 7 2 30.8373 58.9012 10.0893 0.00775216 -0.0191605 -0.0126554
2774 10 2 26.5579 23.5435 21.7224 0.00742152 0.0259873 -0.00131579
2633 10 1 33.2506 11.7014 21.1822 0.000370448 -0.000222452 0.000401859
709 3 1 27.8793 10.2961 23.1695 -0.00906283 -0.000777474 0.00332774
2517 9 2 36.4386 4.91157 14.86 0.00687129 -0.0151167 -0.00284153
571 3 1 36.6535 9.93246 11.5096 -0.00141364 -0.00516492 -0.00798715
2116 8 1 37.0779 8.20116 16.3692 -0.00343026 0.000768181 -0.00283453
170 1 4 42.0327 10.2126 19.2814 -0.00209637 0.00308733 -0.00250471
1779 7 1 40.9662 10.2263 17.7708 0.00389338 -0.00105971 -0.00136503
1822 7 1 46.0175 7.63441 24.5784 0.00210516 -0.00112485 0.00887011
1319 5 3 44.2246 11.0345 20.3001 0.000183092 0.00146308 -0.000521273
156 1 3 40.8981 11.7982 17.4876 0.000379771 -0.000453981 -0.00107539
133 1 1 39.1443 11.6023 14.0021 -0.00429248 -0.000244724 -0.00374203
2407 9 1 46.4222 11.6323 16.5663 -0.00123909 0.00350182 0.00303255
1529 6 1 51.7031 8.29338 17.2863 0.00231411 -0.000355706 0.00061292
1446 6 1 43.5925 10.0931 17.6743 -0.00500828 0.00218342 -0.00276408
1782 7 3 51.1312 10.5494 17.9525 -0.000717281 0.00319409 -0.00225828
2418 9 4 49.9371 12.5125 19.3282 -0.00372138 0.00224521 0.000396461
1810 7 4 52.86 11.9739 20.9569 0.00295246 0.00308481 -2.69804e-05
1574 6 1 46.6798 11.0054 19.2264 -0.00229053 -0.00269316 0.00152499
2632 10 4 43.0761 9.94985 17.7704 -0.00459802 -0.00340541 1.65007e-05
1385 5 2 37.363 6.46759 15.8946 -0.0155641 -0.0120681 -0.0025065
530 2 2 52.6874 17.1687 19.0542 0.0136868 -0.0127572 0.0263015
2214 8 2 42.3363 4.84774 14.3333 -0.00553042 -0.00936088 -0.0111101
1068 4 2 53.4558 8.0781 16.2596 0.000711305 -0.00613112 -0.000425536
1253 5 3 56.5613 10.1024 15.813 0.00300978 -0.00243499 0.00559609
1523 6 1 58.1528 7.01063 19.8891 0.00445335 -0.00589434 -0.00298621
1123 4 2 58.0877 8.14609 21.012 0 0 0
2015 8 1 58.5482 10.0214 18.4905 0 0 0
2060 8 1 57.4138 13.6058 19.667 0.00204574 -0.00533846 -0.00337643
1963 7 2 58.7965 28.6471 38.6931 -0.00563658 0.0175216 0.0423696
2534 9 2 12.5794 16.2658 11.7973 0.0246681 -0.00074616 -0.0116515
2653 10 1 6.97632 19.3578 15.7099 0.00188982 0.00337879 0.0132837
1760 7 3 12.3567 17.6122 20.6841 0.00342153 -0.00445487 0.00325741
1929 7 2 4.45312 19.9115 16.9435 -0.011274 -0.0180214 -0.00428979
1051 4 4 14.5507 16.0349 18.946 0.00624932 -0.00150979 -0.0060877
1783 7 1 9.21159 16.4919 15.9695 -0.00103611 -0.00442945 -0.00666844
1231 5 3 21.1255 20.2199 15.8516 0.00129514 -0.000748875 -0.000125301
2639 10 1 17.1136 17.9177 20.5116 -0.000978434 -0.00457082 0.000666208
1112 4 2 19.4414 8.55853 22.4609 -0.00411953 -0.0132473 0.000161903
490 2 1 15.4733 13.4697 20.2968 -0.0012451 -0.0144656 -0.00175313
233 1 2 27.2327 4.35297 36.1065 -0.00280288 -0.0250485 0.0289387
2766 10 2 27.719 17.2124 28.6099 0.00160456 -0.000408047 0.0200201
308 2 1 23.1927 23.5487 22.0793 -0.00517899 0.00327695 -0.000565973
1922 7 2 36.124 10.7598 31.2105 0.000678322 -0.0114819 0.0234484
906 4 4 32.8319 17.6803 21.7366 -0.00376447 0.00319591 0.00241114
297 2 3 33.5995 22.5344 19.2516 0.00673932 0.00198683 0.00242874
267 1 2 34.8099 10.1926 12.685 -0.0176326 -0.0124187 -0.00646435
1859 7 1 47.4416 14.145 22.1188 0.00888412 -0.0125612 0.00379932
1209 5 3 45.6598 20.3274 17.7171 0.000370548 0.00332891 0.00297089
2621 10 4 44.8567 18.1955 16.5275 -0.00638545 8.20264e-05 -0.00154725
2378 9 1 47.3107 21.2235 21.2333 -0.00317161 0.00346888 0.00293983
1793 7 1 49.1705 21.1853 17.2692 0.0021698 0.000827067 -0.00137742
1436 6 1 48.2475 19.7156 20.5593 -0.0050585 -7.87845e-05 0.000652368
729 3 1 51.5058 22.7456 18.0699 -0.00116772 0.00244734 0.00184102
2171 8 1 47.6766 19.9471 13.3827 0.00308901 -0.00475824 -0.00427843
417 2 1 45.7004 18.9104 12.9093 -0.00118347 -0.00540336 -0.00496684
1018 4 1 51.4062 19.1379 20.7627 0.000128737 -0.00234837 0.00373793
1660 6 2 55.8121 17.8453 20.7572 -3.47839e-05 -0.000872298 -0.00352406
2040 8 1 55.5288 18.3484 15.1836 -0.00296367 0.00132802 0.000420654
2677 10 1 57.4858 18.0945 23.9503 -0.00310324 0.00161185 0.00630662
1210 5 4 53.0415 18.1134 18.8207 -0.00607486 -0.00124607 0.00138082
2720 10 4 0.380857 16.6898 21.5669 0.00548158 -0.00238052 0.000192716
2003 8 1 53.9088 17.7673 17.1068 0.00638898 0.000486605 0.00434552
1832 7 4 52.6945 19.2904 15.3037 0.00788622 0.00241143 -0.0026614
437 2 1 53.758 20.7062 20.6585 0.000326679 -0.00155716 0.00147704
2741 10 1 3.33137 21.9682 15.8907 -0.00263532 -0.00433188 0.00577073
1991 8 4 1.84768 23.7348 22.1494 0 0 0
251 1 2 2.90608 28.42 19.2691 0 0 0
992 4 1 1.76297 24.1125 20.6857 -0.00457556 -0.00288525 0.00472243
510 2 2 0.915011 27.7438 9.11141 -0.00100492 0.000702506 -0.0150563
1274 5 1 10.0447 26.0409 18.4176 -0.00202243 -0.00167457 0.00343949
1398 5 2 12.4207 29.9033 22.9931 0.01436 0.0265907 0.0238243
1040 4 1 19.3095 25.3124 19.8313 -0.00169892 -0.00175989 0.00473467
2264 9 4 21.4069 24.376 20.3711 0.00230501 -0.000466559 0.00129862
1600 6 1 13.8205 26.8302 18.3954 -0.0038315 0.000501234 -0.000197819
2211 8 2 17.1044 27.2722 17.2242 8.29096e-05 -0.00397791 -0.00583006
838 3 2 31.872 24.6075 3.55559 0.0190712 -0.0108903 -0.0347302
1829 7 1 30.2414 26.02 17.2708 0.000836113 0.000150483 -0.00172921
2568 10 4 33.3652 20.1305 16.0256 0.00755321 -0.00527954 -0.00600904
2278 9 1 37.4663 25.4606 15.2391 0.000815624 0.00285956 -0.00083295
1886 7 1 29.7662 21.5892 21.1051 -0.00404449 -0.00535554 0.00155722
645 3 3 28.8313 28.7086 20.1184 -0.00622274 0.000545634 -0.00108558
1194 5 1 34.1772 25.9694 17.5007 2.57723e-05 -0.00620517 -0.00189306
1925 7 2 31.5396 18.8582 8.50943 -0.00566303 -0.0112747 -0.0135209
215 1 4 43.793 23.662 15.7666 0.0014256 0.000878162 -0.00308003
942 4 4 37.7262 23.0229 14.313 -0.00252592 0.000456379 -0.00491993
117 1 1 46.0052 22.0943 15.2237 0.00498714 -0.00258364 -0.00423366
819 3 2 39.7696 9.90833 14.8515 0.0044744 -0.0259562 -0.0152898
609 3 1 51.1787 26.7199 20.5787 -0.00323942 0.000362791 -0.00204723
120 1 1 46.0413 27.5075 19.1991 0.000828741 0.00546372 0.00224929
2289 9 1 50.4217 26.3621 17.5008 -0.00540463 0.00296905 -0.000328685
151 1 1 47.5797 27.3314 22.5863 0.000725655 0.000821068 0.00390466
63 1 1 43.7573 29.645 16.4252 -0.0054272 0.0029795 -0.00290515
1488 6 1 44.4997 25.9795 22.6964 -0.00252427 -0.00246246 0.00116799
1678 6 2 37.8404 27.9704 22.789 -0.016023 0.0078205 0.00186858
1931 7 2 0.219715 24.7196 21.6151 0.0160935 -0.000979492 0.0100174
1640 6 2 55.8606 31.5192 12.5611 -0.0055585 0.0020924 -0.00214334
1754 7 1 53.2102 22.4289 17.6251 0.00336861 0.00361547 0.00184212
1102 4 2 52.4222 27.3043 19.6104 -0.00304627 0.0122895 -0.00465154
2714 10 1 55.3237 28.3466 20.5783 -0.00276286 -0.000233923 0.00141522
2087 8 1 55.2394 23.8716 20.5933 0.0023178 9.34844e-05 0.00305865
1118 4 2 58.2709 28.7148 15.4501 0 0 0
425 2 1 57.3027 24.2635 19.9376 0 0 0
1647 6 2 4.61562 25.2764 21.8695 0.0088862 0.02249 0.00252671
2499 9 2 50.8637 21.9881 16.2177 -0.00390407 -0.0144714 0.00209619
2241 8 2 54.2787 24.365 20.3132 -0.00153216 -0.00779276 0.0115115
2202 8 2 58.383 31.3498 18.9334 0.00629866 0.00843156 0.0102119
528 2 2 0.416205 33.6262 21.0923 0 0 0
2182 8 1 1.47715 35.267 20.3514 0 0 0
2002 8 4 2.28369 35.0732 17.7602 0 0 0
1811 7 1 7.45649 36.6355 19.575 -0.00867756 0.00974942 0.00781773
2426 9 4 4.9164 35.1909 23.1677 0.00283833 0.000577414 0.00234673
2484 9 2 16.5809 30.5451 24.8233 0.00962787 -0.00114201 0.0127739
1057 4 1 14.9987 40.0108 19.0515 0.00590209 0.00619835 -0.00309427
296 2 1 8.96032 28.2501 19.5147 -0.00408603 -0.00259702 -0.000513154
1167 5 4 9.19404 35.3063 14.072 0.00111342 0.000689014 -0.00762955
488 2 1 11.4723 36.9237 15.6118 -0.00521938 0.00375384 -0.000294719
228 1 2 29.0318 36.9117 16.7859 0.0220922 0.00419037 -0.000947056
1417 6 1 24.1403 36.3729 23.402 0.00478276 0.00455249 0.00611811
1182 5 1 22.5954 34.0071 26.0418 0.00704012 0.00115695 0.00754068
957 4 1 15.3179 30.954 19.1832 -0.00378485 -0.00119613 0.00379169
2382 9 4 21.8418 35.2521 16.1398 0.00130885 0.00484584 -0.000677057
2693 10 1 17.7656 28.2716 17.1672 0.00262627 -0.00379955 -0.00065387
616 3 4 18.7308 32.9712 19.7023 -0.00294034 0.00145353 -0.000927173
1860 7 1 22.7089 29.2382 12.6371 0.000756709 -0.00517358 -0.00703815
927 4 3 18.7222 34.8245 19.4824 -0.00130038 0.00478596 -0.00606077
1293 5 1 23.0108 37.5407 13.9384 0.00354584 0.00346714 -0.00933269
2391 9 1 24.2711 28.3991 21.7579 0.00170855 -0.00531412 0.00868766
1743 7 1 28.7744 36.9088 19.1495 0.00219451 0.00852722 0.00209477
2679 10 1 29.0162 36.9227 20.6479 0.000968812 0.0022515 0.00512703
1955 7 2 33.4619 29.5101 10.8792 0.0137117 -0.00338856 -0.0131254
499 2 1 24.2861 32.2018 20.2307 -0.00334514 0.00039287 -0.00264373
1901 7 1 25.9076 34.8361 17.6701 0.000277728 -0.00395391 -0.00527127
190 1 1 35.8056 33.2754 19.9305 -0.0030546 0.00480874 -0.00257676
2339 9 4 34.7311 36.9548 21.3706 0.00144017 6.27833e-05 0.000529966
14 1 1 46.9969 33.3115 20.1262 0.00785246 -0.00334876 0.00705256
763 3 1 38.3947 36.96 22.4564 -0.00228941 0.000763336 0.0065835
182 1 4 40.474 29.6751 19.0087 0.000877598 -0.00385143 -0.00142035
1606 6 1 41.1773 34.1083 18.0795 -0.000527974 0.000157467 -0.00482076
883 4 3 48.2102 29.9542 15.5982 0.00555524 -0.0050781 -0.00499546
1959 7 2 44.2729 29.2693 17.4588 -0.00591127 -0.00291273 0.00173326
65 1 1 0.32753 35.516 16.6099 0.00122275 0.000419731 0.00167672
1537 6 4 53.5329 33.9607 20.2737 -0.004731 -0.00690046 0.000209458
1964 7 2 57.2029 35.1366 19.9186 0.0231553 0.0087816 0.00714414
1902 7 1 55.8447 30.1255 18.0041 -0.00168355 -0.00208415 0.000600297
2192 8 1 53.5728 32.6354 22.4949 0.00382956 0.00198107 0.000287429
1543 6 1 57.962 31.277 21.3382 0 0 0
856 4 1 57.9699 36.355 22.4343 0 0 0
1622 6 1 56.0342 33.3946 17.1769 0.00414983 0.000603324 0.00514999
1321 5 4 56.6745 36.3939 20.2876 -0.00123563 0.00501253 -0.00063246
1403 5 2 58.2375 31.5304 16.374 -0.0300324 -0.036991 -0.00295002
1056 4 1 0.903568 41.3577 22.179 0 0 0
1140 5 1 2.64434 43.4376 21.9976 0 0 0
2444 9 1 4.98935 41.8411 23.5636 0.00115636 -0.00141033 0.00267796
1825 7 1 17.3981 41.0079 17.8524 0.00702364 0.00454102 0.00566291
2414 9 1 13.5525 37.2407 25.765 0.00218723 -0.00744951 0.00742869
1266 5 4 11.2037 43.5931 19.9822 -0.00240363 -9.74351e-05 -0.00116782
549 2 2 13.2807 34.8416 14.8767 0.00514993 -0.0175816 -0.00492183
1024 4 3 16.1416 44.377 16.5489 0.0122604 -0.000759931 -0.0106588
790 3 2 20.9273 39.4185 36.1752 0.0101545 -0.00846777 0.0336343
134 1 3 17.6975 43.364 17.2875 -0.0014846 -0.00278576 0.00279156
2361 9 4 16.3432 42.0973 14.1635 0.000947657 -0.0051637 -0.00470766
111 1 1 19.2963 43.0668 18.0764 -0.00139078 -0.00322313 -0.00281069
1054 4 1 19.4449 43.448 21.2002 -0.00528188 -0.00314216 0.00234579
1581 6 4 23.2852 42.1689 12.9367 -0.00101478 0.00616967 -0.00527098
579 3 3 27.3299 46.3091 19.4322 -0.00242327 0.00268799 0.0020144
2408 9 1 26.3975 41.4688 18.2727 0.000487479 -0.00413658 -0.000458982
1375 5 2 36.2411 51.6043 15.0876 0.016994 0.0184433 -0.0135069
1683 6 2 21.3145 37.3038 4.07368 -0.00410786 -0.000855692 -0.0327
828 3 2 31.7378 35.2452 21.9924 -0.00539937 -0.0144692 0.0119256
2375 9 1 29.4519 39.9857 18.7337 -0.00773662 0.00411465 0.00112427
620 3 1 32.8729 43.5957 18.168 0.0025856 0.00228477 -0.00194477
403 2 1 35.2746 40.856 22.3086 0.000116046 0.00140184 0.00296069
1828 7 1 28.3515 45.0977 16.2086 -0.00401014 0.0022597 0.000160652
1138 5 1 30.4282 42.3116 18.7851 -0.00135766 -0.00115403 -0.00143287
2449 9 4 37.839 39.1295 20.275 0.00523337 -0.000750954 -0.00189816
1778 7 1 35.6653 41.3321 16.7306 -0.00431699 0.000626377 0.00195645
27 1 1 40.7027 46.5855 22.9642 0.0047586 0.00514267 0.00119286
1733 7 1 38.0189 40.1334 16.9051 0.000691108 0.000429468 -0.00213527
934 4 1 39.759 38.1827 13.7558 -0.00265659 0.00012601 -0.00326379
2271 9 3 36.199 36.6532 18.5496 -0.00554122 -0.00209144 -0.00237529
440 2 1 42.0435 35.9505 23.0973 -0.000212038 -0.008933 0.00423506
754 3 1 39.545 40.834 19.7544 -0.000195523 -0.00298664 -0.00208701
175 1 1 45.0484 40.5471 21.8397 0.00133683 -0.00301839 -0.000979707
756 3 4 38.6553 42.3813 18.8259 -0.00233266 -0.00396381 -0.00437894
2405 9 4 50.4548 40.2993 23.0308 -0.00382698 -0.00501116 0.00041637
2688 10 1 44.3372 39.1085 17.8786 -0.00166862 0.00229455 -5.96931e-05
472 2 1 48.5258 41.6897 19.3065 0.00533369 0.00140983 -0.00181433
2403 9 3 44.6492 42.9762 19.9423 -0.00441096 -9.9582e-05 0.00106939
139 1 1 48.3319 42.9653 17.3091 -0.00305734 0.00409365 -0.0011759
1556 6 1 49.6325 44.449 20.4946 0.00109068 0.000961922 -0.000290913
2348 9 1 51.9029 38.8746 18.3855 -0.00130202 -0.00108209 -0.00484403
2178 8 4 51.2245 37.4733 20.6696 -0.00119461 -0.00476621 0.00195528
33 1 1 51.5012 45.4204 22.2544 -0.000588094 0.00297238 -0.00305009
232 1 2 51.402 37.9898 19.5577 -0.00825408 0.0125505 0.00100877
487 2 4 57.2437 46.7092 15.3004 -0.00363796 0.00391105 -0.00140878
1586 6 1 51.9972 40.0419 20.2879 0.000484561 -0.00104565 -0.00532344
1379 5 2 3.56661 46.4321 18.2886 0.00746898 0.00656501 -0.0149181
1985 8 1 53.9415 37.9479 16.638 0.00011408 0.000684172 0.00681129
2088 8 1 59.046 39.6167 17.9419 0 0 0
2158 8 4 59.1242 40.981 21.2774 0 0 0
533 2 2 59.9009 44.6245 19.5338 0 0 0
971 4 3 58.7693 37.9832 22.3454 0 0 0
2767 10 2 53.3123 42.3263 21.031 -0.0029619 0.00186704 0.00360164
845 3 2 56.1871 32.5054 11.1606 -0.00931394 -0.00971872 0.0104702
2493 9 2 1.02646 47.4393 20.4181 0 0 0
2333 9 1 2.3898 50.7251 18.4505 0 0 0
457 2 1 0.94647 51.939 18.892 0 0 0
652 3 1 1.17153 45.4897 22.2633 0 0 0
2394 9 4 3.11826 44.8743 21.8367 -0.00237949 -0.00169628 0.00913969
529 2 2 9.81268 40.5271 19.3864 0.000441936 -0.0161006 0.00477026
2295 9 4 14.8681 50.7662 22.5674 0.0036992 0.00217546 0.00120107
2123 8 4 10.4786 48.6784 19.9625 -8.1796e-05 -0.00213989 -4.89204e-05
865 4 1 14.1349 51.9889 17.4263 0.00187141 -0.000399977 3.01742e-05
2683 10 1 9.53489 44.9937 18.4713 0.000573741 -0.00301257 -0.00521267
2156 8 4 10.6151 47.2189 18.0775 8.29699e-05 -0.00676865 -0.00444316
1731 7 4 19.4765 47.9982 16.4567 -0.000682683 0.00586625 0.00284142
2209 8 2 20.6557 47.3814 17.9134 0.000673579 -0.00748189 0.00377915
2080 8 1 19.7645 51.4777 14.3639 -0.000512677 0.00708646 -0.00452321
42 1 1 15.8863 44.5255 21.2277 -0.00663012 -0.00273538 0.00453649
2154 8 1 16.8336 48.5259 19.8588 0.000781968 0.00297167 0.000677426
2422 9 1 17.2728 52.432 24.5902 -0.000327056 0.00162288 0.00428522
1867 7 1 23.1341 46.6793 17.4116 0.000926804 -0.00836542 0.00321325
102 1 1 25.734 46.2174 12.6102 -0.00125024 0.00173699 -0.0079811
480 2 1 24.5319 41.8917 14.7174 -0.00622327 -0.00702397 -0.0039192
274 1 2 40.2599 38.7837 7.00101 0.0351854 -0.0248346 -0.0211427
1565 6 1 24.3482 52.0058 18.6575 0.00339642 0.00459476 -0.00472769
2502 9 2 36.151 47.7884 31.3448 0.00166664 -0.00409733 0.0257569
2479 9 2 32.4036 49.2749 18.6904 -0.00447977 0.000913262 0.00442179
2133 8 1 32.7893 52.9228 19.1556 0.00328762 0.00574869 0.000120321
408 2 4 35.4156 46.9592 20.366 0.000149246 0.0018441 0.00298576
691 3 4 33.2007 47.4387 19.5072 -0.00191389 0.000950468 0.00300495
2372 9 4 38.4777 43.8494 13.1723 0.00238133 -0.00507532 -0.00526646
1468 6 1 34.6189 45.3049 18.2784 -0.00202058 -0.000354272 -0.000712017
1096 4 2 29.0638 49.0981 18.1251 -0.00463202 -0.00265463 -0.00347388
2204 8 2 26.1334 40.1402 19.659 -0.0103575 -0.0136579 0.00339967
981 4 1 35.3023 45.6866 16.262 -0.002349 -0.00680924 -0.00781255
1599 6 1 36.6338 48.3989 25.6481 -0.00179401 0.0065797 0.0104002
933 4 1 44.0156 50.8621 15.2705 0.00043253 0.00609769 -0.00632892
2023 8 1 42.3208 47.2019 16.002 -0.00327538 0.00441022 -0.00101773
2620 10 4 41.0518 51.4458 12.1101 0.00387158 0.00260483 -0.00662871
306 2 3 42.2501 48.0774 17.133 -0.000408394 -0.00217109 -0.0018812
1484 6 4 39.6623 46.5324 19.3333 -0.00423045 0.00129599 -0.00273183
465 2 1 42.6642 45.2295 13.7801 0.000606097 -0.0029078 -0.00620647
58 1 1 41.1381 46.3037 11.2935 -0.00180145 -0.00514589 -0.00967174
2423 9 1 39.7057 49.2002 13.8504 -0.00161409 -0.005676 -0.00262134
945 4 1 38.9517 45.6541 20.6305 -0.00220259 -0.00176714 -0.00287028
897 4 1 44.9911 46.605 20.8538 -0.00185997 -0.00176941 0.000166243
1036 4 1 52.3303 49.795 20.9436 0.000764697 -0.00163407 0.00232161
1629 6 1 52.0007 50.1212 20.0015 -0.00642576 0.00614519 -0.00369667
1434 6 3 49.9311 45.4151 21.6291 0.00114921 -0.00443016 0.000612409
1170 5 1 48.7148 47.2048 19.236 -0.00140224 -0.000901875 -0.00271615
1074 4 2 47.6995 46.2642 15.324 0.000807158 -0.000784548 -0.00625024
1587 6 1 47.0772 45.5953 20.776 -0.00112939 -0.00520321 -0.00210647
1980 8 4 0.574659 51.7249 20.2578 0.00280226 0.00433881 0.00611027
1708 7 4 54.5707 47.9636 19.2884 -0.00162491 -0.00110384 0.00175528
2689 10 1 58.3509 47.0591 19.7983 0 0 0
1255 5 4 6.74256 52.6309 19.3154 -0.000275083 0.00182544 -8.66067e-05
2813 10 2 55.6863 54.7937 23.6507 -0.0177265 0.0275926 -0.008785
467 2 1 9.17605 54.3815 14.807 0.000587045 -0.0100834 -0.00231506
1456 6 3 10.2612 59.0999 21.481 -0.00130142 0.00649623 0.00488096
1759 7 1 12.23 59.0828 21.2807 0.00241063 0.00428703 0.000376825
1307 5 1 12.3584 53.9085 21.8532 -0.00426921 -0.000359588 0.00567906
900 4 1 10.5007 56.5226 12.838 -0.00613665 -0.00119734 -0.00602727
1430 6 1 18.1237 54.2676 18.0886 0.00634407 -0.00639897 -0.000461116
2037 8 1 16.605 54.9994 12.0029 0.000857671 -0.00607892 -0.00645295
636 3 4 15.9773 55.0155 20.1227 0.00103337 -0.00336625 0.000361208
2455 9 1 22.1382 52.9205 22.5877 0.000663299 -0.00436268 0.00421982
1669 6 2 22.5072 53.6507 20.6245 0.00868019 -0.0104288 -0.0027852
1691 6 2 12.5333 50.5901 14.6294 -0.00724812 -0.00580877 -0.00965657
517 2 2 26.4425 51.2159 27.1576 0.00791204 -0.0144343 0.0124661
688 3 1 28.8294 59.2849 22.7319 0.00323605 -0.000772552 0.00986294
1637 6 2 17.0643 59.4589 25.3674 -0.0208392 0.00850321 0.0109649
1324 5 1 29.5922 50.9355 17.2578 0.00267419 -0.00570803 0.00180213
1178 5 4 24.7492 59.2739 19.0438 -0.000539182 0.000680471 0.00256918
2752 10 3 27.4522 55.4668 22.5145 0.00185426 -0.0010174 0.00182449
1730 7 4 26.2086 53.2546 19.6917 -0.000495232 -0.00321555 -0.00169986
1347 5 1 26.135 55.6584 18.1329 -0.00411809 0.000143612 -0.00263751
2584 10 3 34.3303 55.2304 15.0799 0.00199418 0.00343707 -0.00102417
1910 7 1 31.8712 55.908 19.97 0.000214653 -0.00208704 0.00436936
694 3 1 34.4968 57.8459 22.8325 -0.00127257 0.00271295 0.00293732
2719 10 1 33.5198 55.5077 21.1634 0.00187935 -0.000979062 0.000986268
1486 6 1 31.807 54.3515 18.8015 -0.0024076 0.000500071 -0.00720574
791 3 2 42.0174 4.16335 20.6585 0.00688255 0.0159755 0.00980342
2296 9 1 34.9211 56.8943 19.4922 -0.0073001 -0.00396447 0.0041293
1749 7 1 46.6765 54.6976 16.2313 0.00761784 -0.00511229 -0.000988707
1001 4 1 38.5898 55.47 13.2691 0.000955741 0.00106992 -0.00583631
1685 6 2 37.7961 55.9318 15.2141 -0.00251993 -0.0037047 -0.0062084
840 3 2 41.7092 56.0517 14.3424 -0.0014401 -0.00631054 -0.0083186
1800 7 1 46.3841 53.9654 16.5538 -0.00170697 0.00126492 0.00248082
1576 6 1 44.7134 54.8296 16.5536 -0.000875628 -0.00313471 0.00264497
1480 6 1 47.8143 54.9311 18.7695 0.00114963 0.00153616 0.00385228
2705 10 1 52.2274 52.8592 15.7481 0.00296906 0.000793053 0.000925559
2031 8 1 49.4878 55.2756 15.5 -0.00452965 0.000137082 -0.00225938
452 2 4 48.7639 55.0912 18.2119 -0.00217966 0.00500908 -0.00389572
2359 9 3 49.3914 52.0373 24.2656 0.00457691 -0.00403842 0.00490912
2148 8 1 48.5672 51.5326 22.0634 0.00342433 -0.00621819 0.00534947
960 4 1 50.0777 55.3979 21.2027 0.000237253 0.00120664 -0.000750266
1652 6 2 48.3165 54.6475 24.1748 -0.0126439 -0.0168757 0.00916458
2104 8 1 52.6985 52.9077 17.9304 0.00210518 -0.00330992 0.000486373
317 2 1 54.2992 57.7856 20.164 0.00184387 -0.000923582 0.00447956
2376 9 1 55.3533 58.4266 21.1556 0.00508681 -0.00213984 4.61172e-05
2581 10 1 59.7319 57.4576 16.6179 0 0 0
786 3 2 57.2994 59.1852 20.0654 0 0 0
1519 6 1 57.7415 57.7043 17.2876 0 0 0
1066 4 1 54.7798 57.7435 17.8246 0.000698042 -3.66672e-05 -0.000627234
37 1 3 54.85 58.5215 21.7168 -0.00383291 0.00159811 0.00413429
70 1 1 3.41893 7.26508 24.6134 0.00227385 -0.0103031 0.00312256
265 1 2 13.9273 58.3425 22.67 0.0231401 -0.00526997 -0.000960051
627 3 1 0.265009 5.87657 27.1366 0 0 0
2353 9 1 0.818609 3.09488 25.722 0 0 0
345 2 1 59.9087 3.43411 30.7782 -0.00217062 0.000758036 0.00331032
1513 6 3 57.6496 58.0748 26.2702 -0.00498454 -0.00770957 0.00237423
1206 5 1 8.93558 3.27413 25.3202 -0.00170582 -0.00263962 -0.00234139
89 1 1 6.40952 5.97889 28.4059 -0.0018389 -0.00386274 -0.0102016
1702 7 1 10.9316 5.96198 27.6818 -0.00132323 0.0031196 0.00476966
2704 10 1 18.1741 6.39284 26.2495 0.0125233 0.00475252 -0.00169364
2315 9 3 11.914 55.7592 25.01 0.00318329 -0.0103248 -0.00505221
2392 9 1 14.5538 4.52671 27.4432 0.00484504 0.003752 0.00232779
1131 5 1 8.06315 0.592048 27.9858 0.000505388 0.00362136 -0.00517257
798 3 2 16.1335 17.7422 18.5162 0.00678627 0.0298059 -0.0113524
259 1 2 28.4054 55.0609 27.6273 0.0185313 -0.0240958 0.00670476
1890 7 1 21.8463 9.4935 21.8593 0.00135218 0.0042915 -0.00158453
2448 9 4 17.3803 2.90255 26.4501 0.000947634 0.00173127 -0.000774615
2090 8 4 20.3644 8.2532 23.3226 -0.000151966 0.0037509 -0.00353563
2686 10 4 18.4134 2.32582 27.0707 0.00122168 0.0010485 -0.00433556
556 2 2 11.6054 9.16616 35.5218 -0.0258169 0.0164186 0.0160052
35 1 1 23.275 0.110186 31.0773 -0.00281753 -0.00135084 0.00457679
2613 10 1 17.5394 5.55283 26.7771 -0.0114621 0.00148492 0.00200245
2540 10 1 26.3318 3.72565 28.1339 0.000823981 0.00307749 0.00147839
978 4 1 26.6186 5.15756 22.8312 -0.000988833 0.006683 -0.000369823
1059 4 4 27.9968 4.04785 23.0303 -0.00169289 0.00605391 -0.00031454
2322 9 1 29.7482 0.75201 27.1695 0.000434179 -0.00269128 -0.00404724
1798 7 1 28.2882 58.9748 25.8881 0.00351538 -0.00400248 -0.00671034
543 2 2 24.5473 14.412 21.0304 -0.00351131 0.0198531 -0.015167
637 3 1 37.4951 11.7456 28.3658 0.00854789 0.0111114 0.00582246
193 1 4 28.0712 7.72299 29.5618 -0.00685419 0.000862536 0.00479567
787 3 2 19.0205 8.16811 24.9715 -0.0286687 0.00257742 -0.000268494
1130 5 1 31.7994 4.19959 28.4972 -0.00164109 -0.00414091 0.00412586
916 4 1 43.5793 2.29289 25.5216 0.00925752 0.000461993 -0.00129332
116 1 4 44.3284 0.674467 26.0514 0.000833308 -0.00661804 0.00270747
1873 7 1 40.8835 3.93537 22.4104 -0.0033783 -0.00370145 -0.0016219
1533 6 1 45.8929 8.94208 27.923 0.00640133 0.0131031 0.00402814
2028 8 1 40.7899 0.857128 23.6786 0.00245463 -0.00618119 -0.0100123
2664 10 4 52.0208 1.32255 28.2072 -0.00555152 -0.0035617 0.00178669
1463 6 1 48.6163 59.9156 24.2674 -0.00333632 -0.00270739 -0.000328511
2706 10 1 52.667 4.29871 25.8503 0.00892857 0.000413194 0.00164726
2544 10 4 49.5203 58.0435 28.885 -0.00161696 -0.00404801 0.00460002
886 4 1 46.7606 7.35155 23.3128 0.00147213 0.00117484 -0.00581562
1818 7 4 48.9024 59.5764 25.9426 -0.00074788 -0.00262377 -0.00307612
561 2 2 43.9195 10.33 27.6394 -0.0138433 0.00610257 0.00302592
2053 8 1 45.3222 4.68718 25.5376 -0.00402101 -0.0049317 -0.00480006
1667 6 2 59.552 7.0448 32.8572 0.00417743 0.000380097 0.0137116
647 3 4 56.5686 5.11728 22.3088 0.00131428 -0.00140983 0.00669503
2275 9 1 52.8785 4.16043 27.1157 0.00165615 0.00988255 -0.00025698
553 2 2 58.1971 4.98677 26.982 0 0 0
2675 10 1 52.6614 4.96937 29.0548 0.00491113 0.00145779 -0.000633116
2580 10 1 55.7506 5.98155 27.1677 -0.00209536 -0.00358406 -0.000227259
1948 7 2 3.13026 3.58691 35.6956 -0.00751594 -0.00703445 0.0175125
2115 8 1 0.312643 12.4657 24.6361 0 0 0
2606 10 3 1.43198 10.293 23.435 0 0 0
2179 8 4 2.71844 13.7137 24.4822 0.00140873 0.00109838 -0.00253872
316 2 1 1.90489 13.4369 29.2077 0.00187352 0.00303976 -0.0013379
1951 7 2 12.9226 9.94843 30.0361 0.00491831 0.00369713 0.0118483
2039 8 1 15.2741 13.589 28.7943 0.00410297 -0.000359375 0.00595417
2424 9 1 16.6914 8.03546 20.8972 0.00514127 -0.00353721 -0.00424475
889 4 1 13.9332 19.5077 27.2417 0.00832274 0.00942485 0.00923899
201 1 1 11.9248 7.80024 29.4558 -0.00612815 -0.000938017 -0.00024976
2218 8 2 13.0214 12.0244 36.088 0.021918 0.00220004 0.0304861
236 1 2 7.00028 15.6778 19.0056 -0.0116883 0.00557728 -0.0237703
1842 7 1 18.393 15.1889 22.6499 0.00126654 0.00504481 -0.00179193
16 1 4 16.6334 14.8984 26.9581 -0.00419155 0.00112868 -0.00145979
395 2 1 17.0736 9.92016 26.0353 -0.00484813 -0.00338596 -0.00257692
2193 8 1 18.1267 6.33568 29.5839 0.000316295 -0.00674995 0.00188335
746 3 4 15.1214 7.79188 27.9505 -0.0037999 -0.00129652 -0.00160316
2618 10 1 16.5091 7.61312 25.956 0.00140423 -0.000744216 -0.00508988
54 1 1 21.1292 14.7554 25.1514 -0.00185503 0.000251551 -0.00543533
2323 9 1 24.8128 15.1191 24.1946 -0.00767061 0.000253883 0.0020853
31 1 1 22.4438 12.1486 22.9556 -0.00146978 0.00543021 -0.00145987
2751 10 4 24.5137 8.67944 25.1771 0.00215792 -0.0011922 0.000831366
2665 10 4 27.2545 12.8308 30.0539 0.000651077 -0.000330093 0.00143335
1804 7 3 24.3502 12.4591 26.6644 0.000178096 -0.00021791 -0.000236691
1872 7 1 22.6711 10.0218 28.0732 -0.00478331 -0.000585142 -0.00070408
1335 5 1 30.4911 8.36503 28.4146 0.00446024 -0.00388155 -2.01579e-05
1373 5 2 23.8524 2.79723 20.568 -0.00741823 -0.0114751 -0.00745174
1945 7 2 22.6419 53.5698 34.2108 -0.00498452 -0.0299373 0.00919875
2290 9 1 39.1861 12.6888 28.1774 0.00362203 0.00522377 -6.94715e-05
78 1 1 34.0155 4.98941 27.477 -0.000855319 -0.00621365 -0.00101424
1905 7 4 34.7409 13.9876 27.652 0.000852551 -0.000687392 0.000325044
1377 5 2 43.4327 12.6661 28.3015 0.00507874 0.00467593 0.00883555
2562 10 3 42.5259 10.0466 23.2384 -0.000935296 0.00503309 -0.000470856
1277 5 4 44.2792 7.67822 26.6651 0.000767059 -0.00323086 -0.000699031
360 2 1 40.2179 6.16337 24.6603 -0.00126589 -0.0031505 -0.00297217
200 1 3 42.5951 12.3085 27.1226 -0.0036884 -0.000495112 0.00164453
1655 6 2 33.4915 18.8949 20.9479 -0.0152721 0.00950118 -0.00781853
1245 5 1 50.811 9.04539 23.7943 -0.00513147 0.000715105 0.00102618
374 2 1 48.7288 12.6366 25.1154 -0.00128035 -0.00180645 0.00421378
2215 8 2 50.3433 14.0423 26.7385 -0.0224468 0.0232278 -0.0144366
2446 9 1 49.2275 14.1517 23.6394 0.00276932 0.00729982 -0.000697165
39 1 4 49.0962 13.5399 26.3327 0.00582442 0.004226 0.000199507
1419 6 1 48.5436 10.2027 29.4563 0.000388369 -0.00275915 0.00597546
2572 10 1 51.4464 14.7627 23.708 0.00143048 -0.0043558 0.00710189
1045 4 1 51.1996 11.2174 30.1936 -0.0012797 0.00238934 0.00309411
2270 9 1 43.9017 9.76697 25.7907 -0.00632275 0.00173356 -0.00172324
1426 6 4 50.7305 7.4835 25.1083 0.000797479 -0.00296196 0.00088594
1897 7 4 44.5872 14.0041 23.3251 -0.00147966 0.00168827 -0.000543227
1515 6 4 45.6542 8.90224 27.7111 -0.000904087 -0.00304908 -0.000540433
2579 10 1 51.2072 12.9962 24.7661 -0.00193506 0.000845527 0.00119747
481 2 1 48.5948 9.71252 23.0887 0.00127862 -0.00542972 -0.00125883
516 2 2 53.6691 8.4272 26.7667 -0.0122858 -0.0104972 0.00937336
1374 5 2 55.0264 9.21375 29.227 0.00083207 -0.00454763 -0.01191
1397 5 2 52.0314 12.6825 25.6109 0.000584976 -0.00373516 -0.00173269
623 3 3 56.6431 9.29246 22.8713 0.00269914 -0.00293194 -0.00326109
2132 8 1 54.1887 12.1627 23.9963 -0.00284704 0.00130433 -0.00106147
534 2 2 58.4041 7.75726 26.8592 0 0 0
235 1 2 57.6062 12.0366 24.0829 0 0 0
243 1 2 49.7366 18.983 26.3986 -0.0133495 0.0160426 -0.00484693
698 3 3 4.27109 18.1796 25.851 0.000417711 0.00416395 -0.00828311
2066 8 1 2.43359 20.1375 29.0739 0 0 0
2608 10 1 0.0472505 20.9864 22.8536 0 0 0
2256 8 2 2.27825 18.5443 25.8712 0 0 0
1353 5 2 0.238048 21.5039 25.4909 0 0 0
2610 10 4 9.91356 21.6259 25.9024 -0.000846995 0.00100655 1.451e-05
1508 6 1 17.0847 17.3759 23.2592 0.00511506 -0.0103751 -0.0023143
384 2 1 19.5083 22.1047 24.4343 -0.00129646 -0.000578261 -0.00220798
1591 6 1 16.5032 16.738 29.0769 -0.00588536 -0.00778381 0.00316994
1029 4 1 18.3005 20.1528 25.9669 -0.00502706 -0.00284183 0.00148354
825 3 2 23.794 19.412 27.9193 -0.00215744 -0.000138957 0.0091273
32 1 1 26.0983 19.1401 25.8244 -0.0010143 -0.00370503 0.00370299
1594 6 4 24.2274 19.8503 24.7259 -0.00303151 -0.000622054 -0.00294616
630 3 1 30.3955 15.7848 23.0872 0.00437625 -0.000946367 -0.0102845
2602 10 1 34.8364 15.6277 25.6656 -0.00312117 -0.00355193 0.0040365
124 1 1 31.414 15.7877 27.0708 -0.0026741 -0.00245097 0.00306015
2165 8 3 37.7939 22.4599 25.7489 0.00227423 0.000507351 0.00137095
1500 6 3 37.5796 20.3412 27.7782 0.00326717 0.000243929 -0.000663942
2636 10 1 36.7568 20.3241 21.7659 0.000666381 0.000367926 -0.00430217
851 4 1 38.9508 24.4203 26.0875 0.00589453 0.00513442 -0.00369915
1411 6 3 31.6559 17.0038 25.9283 -0.00123641 -0.0021985 -0.00399981
1895 7 1 32.9111 19.1489 27.6936 0.000960487 -0.00528856 0.005009
2746 10 1 39.7458 12.6217 26.541 0.00214839 -0.00539842 0.0066304
712 3 4 38.9073 16.1983 26.0706 -0.000931257 -0.00070206 0.00397573
1386 5 2 37.0978 30.0864 31.4724 -0.00249057 0.027988 0.00387522
477 2 1 44.1094 20.7045 27.7641 0.00504498 0.00840015 0.00392313
1275 5 3 43.2608 20.1725 34.4082 0.000681902 0.00755388 0.0095229
195 1 1 45.1452 16.7705 26.8857 0.00535243 0.00156689 0.00433996
1726 7 1 38.6969 19.5091 22.2045 -0.00326888 0.00339516 -0.00209503
2445 9 1 43.1668 14.8913 21.9044 -0.00186454 -0.0017738 -0.00350425
1356 5 2 39.0683 3.58374 17.4429 -0.00425889 -0.0312002 -0.0122346
1773 7 3 46.4759 19.8976 23.3747 -0.00294103 0.000271113 0.00148183
1649 6 2 45.739 21.4724 26.4111 -0.0052912 0.0015365 0.00205179
678 3 1 49.4905 14.1436 30.5216 -0.00418502 -0.0030923 0.00511159
2427 9 4 49.5529 16.7998 29.844 0.00225688 -0.0013853 -0.000194478
544 2 2 0.251129 24.7522 29.8898 0.00136364 0.0120208 0.00555101
887 4 1 52.6944 16.1627 25.0446 0.00267244 0.00430363 0.000172686
2175 8 1 56.3829 14.7429 25.8528 -0.000998514 0.000751215 0.00193635
2586 10 1 58.5571 16.8788 25.5412 0 0 0
2117 8 1 59.828 19.6821 29.8773 0 0 0
783 3 1 54.4164 19.3245 29.2537 -0.00605909 0.000524584 0.00660027
1645 6 2 59.3971 16.8619 28.4504 0 0 0
2129 8 1 54.6783 18.8941 25.2467 -0.000916912 -2.7202e-05 -0.00317957
2025 8 1 59.0289 21.2196 26.9317 0.00427538 0.000265725 0.00153228
318 2 1 0.118695 21.4726 23.3504 0.00162127 -0.0014219 -0.00103345
1107 4 2 2.74923 13.9329 21.8535 0.0108096 -0.0102008 -0.012526
1032 4 1 2.5551 27.2996 28.1921 -0.00214054 -0.00261538 0.00309191
2554 10 4 1.65902 25.232 26.0868 0 0 0
74 1 4 6.19314 28.671 27.208 0.00203022 -0.00907589 0.00127557
986 4 4 16.0166 29.8035 24.5891 -0.00161443 0.00840732 -0.000280389
1732 7 1 18.6752 24.3006 29.9794 0.00219913 0.0021961 0.000888938
1520 6 1 17.0757 25.7012 27.4679 -0.00264082 0.00359562 -0.000148085
77 1 1 19.9475 30.2404 22.5025 -0.00511023 0.00798983 -0.00198809
977 4 1 15.8114 21.9482 33.0175 -0.00185421 -0.00174206 0.00994996
1308 5 1 16.6142 21.9 26.6739 -0.0042107 -0.00274507 -2.32106e-05
2657 10 1 21.2929 28.5147 31.5863 0.00439638 -0.0021972 0.00885791
1073 4 2 19.726 38.379 15.6145 -0.00133832 0.0180908 -0.0252989
1977 8 1 30.5258 23.4896 31.1071 0.0014631 -0.000580112 0.00645641
69 1 1 22.5436 20.5892 27.6572 -0.00192083 -0.00474359 0.00399057
2325 9 1 26.6665 28.5808 31.0274 0.0021154 0.00066361 0.00263311
416 2 3 23.2991 25.9023 20.9561 -0.00412646 0.00147691 -0.00561595
1862 7 4 24.9628 27.5464 29.9357 -0.00470628 0.000484621 0.00179445
2110 8 1 26.3377 23.5625 24.7988 0.000980135 -0.00436516 -0.00413698
2790 10 2 51.9686 15.7704 35.035 -0.00718077 0.00758975 0.000914417
2622 10 1 34.2511 28.3001 26.1187 0.000691287 0.0110403 0.000508699
2773 10 2 30.5169 29.65 28.4083 -0.00871958 0.0130351 0.00123166
2507 9 2 28.3708 20.7265 18.5735 -0.00406956 -0.0167159 -0.0110081
2011 8 3 41.9577 27.6195 31.6168 0.00289798 0.000243963 0.0148857
1595 6 1 43.6161 25.0033 26.442 -0.0021717 -0.00188092 0.00427758
1384 5 2 35.779 33.7664 26.076 -0.0131627 0.0224999 -0.000906877
501 2 1 45.5013 24.24 27.7283 0.0088204 0.00338107 0.00360431
853 4 1 41.7421 26.534 27.9918 -0.000263911 0.00279672 -0.000225293
2650 10 3 45.145 29.045 28.086 0.001654 0.00090816 0.00154608
368 2 1 39.6565 22.1473 22.5653 -0.00131889 -0.00257595 -0.00351289
1623 6 4 41.217 32.3286 26.4435 0.00512193 0.00768337 -0.00612418
716 3 1 40.8203 22.032 24.7472 -0.0006095 -0.00491848 -0.00558782
1046 4 3 47.2256 27.583 24.9619 0.000236366 0.00793864 -0.00459793
1287 5 1 51.9092 24.6434 24.3578 0.00111017 0.0026357 0.00303164
2012 8 4 52.6014 26.9114 27.7106 0.003065 -0.00214057 -0.0040914
1280 5 1 48.0806 25.8072 23.4332 -0.00356292 -0.00327694 -0.00336125
1401 5 2 4.47048 35.3246 26.5819 0.0213125 0.0116823 -0.0157568
642 3 1 51.5494 25.607 25.1199 -0.00171017 -0.00101293 0.000371267
2506 9 2 51.9708 28.1826 24.4668 -0.00760204 0.0275806 -0.0100699
1579 6 3 54.2826 28.8881 29.054 0.00135078 0.00145151 0.00147128
1571 6 1 56.2782 25.4064 29.9372 -0.00248559 0.00299211 0.00148965
1572 6 4 58.9368 25.5521 22.5177 0 0 0
319 2 3 57.6402 27.4331 24.2682 0 0 0
332 2 4 59.9691 27.7426 26.9625 0 0 0
2442 9 1 58.9559 25.9872 29.6479 0 0 0
1914 7 2 6.99498 25.9043 26.8987 -0.00598653 -0.0423788 -0.00348342
1602 6 4 0.548567 35.0457 23.1946 0 0 0
1868 7 1 1.74182 36.2963 24.8236 0 0 0
2387 9 1 0.724449 34.854 24.5218 0 0 0
2363 9 1 9.78135 39.2486 25.795 0.000924025 0.00494156 0.000746441
743 3 1 12.5908 23.7681 24.0778 0.00342292 -0.0182257 -9.36831e-05
2255 8 2 6.82229 27.624 24.3235 -0.00149344 0.00516621 0.0292336
2817 10 2 21.208 22.3497 31.4552 0.000518962 -0.0290379 0.0114822
203 1 1 19.3688 34.9867 31.1922 0.00260643 0.00800254 0.004161
1723 7 1 18.2145 31.324 29.3802 -0.00106188 -0.000159044 0.00410569
2337 9 3 19.0831 30.64 28.3266 0.000110087 -0.000506721 0.00124213
2287 9 1 22.0154 31.929 25.1111 -0.000737811 -0.001126 -0.00471551
1176 5 1 27.4618 33.7338 20.4571 0.00640474 -0.00350044 -0.00458264
1161 5 1 21.9151 33.4332 26.4266 -0.00377526 -0.00202802 0.000670209
1250 5 1 26.4084 38.6157 23.9771 -0.00382324 0.00686987 -0.000124196
1152 5 3 31.5422 31.7048 26.7265 -0.000629428 0.0026799 -0.00113756
2443 9 1 34.9922 34.7284 28.1671 0.00286939 -0.000132946 -0.00054083
2364 9 1 32.5853 30.2811 27.4843 -0.00232935 -0.0033718 0.000667974
2429 9 1 34.4527 37.1273 23.4399 0.00136805 0.00507435 -0.00547993
2144 8 4 33.472 29.072 25.3543 0.00202896 -0.00299472 -0.00417174
2814 10 2 33.5251 31.6426 27.0652 -0.00812847 -0.00933403 0.00653343
1050 4 4 41.6346 31.0085 27.5398 -0.000194835 -0.0012882 0.00505247
1438 6 4 42.1056 32.3131 23.5621 -0.00129473 -0.00131264 -0.000917823
614 3 4 42.584 32.1553 27.5765 -0.00290835 -0.00160527 -0.00427595
502 2 1 44.7475 31.9017 31.6364 -0.00422679 0.00167594 0.00616141
2476 9 1 48.4026 37.2642 28.2257 0.0025846 0.00328194 0.000584537
2094 8 1 53.0774 33.2393 27.3866 -0.000283315 0.000866582 -0.00621437
1781 7 1 51.8472 36.737 24.2082 0.00364698 0.000594496 -0.00254992
2404 9 4 47.9356 30.8119 22.7241 -0.00190756 -0.00292743 -0.00200005
1981 8 1 47.6519 33.1079 27.9416 0.002908 -0.00445096 0.00138037
1058 4 1 58.6521 36.1992 24.2969 0.00743909 0.000581766 0.00392918
1892 7 3 59.1837 29.8107 27.8052 0.00350206 -0.00261144 -0.00234369
158 1 1 58.8644 30.8717 26.9557 0 0 0
1802 7 1 59.3483 35.4149 26.8236 0 0 0
1283 5 1 6.41612 38.146 23.0291 0.0093115 0.00313909 -0.0020581
1453 6 1 5.54053 43.9016 24.0963 0.00171192 0.00137251 0.00193528
2799 10 2 0.991789 41.2592 24.1397 0 0 0
1517 6 1 2.22789 38.87 26.6953 0.00437582 -0.00422676 0.000706093
1940 7 2 13.4137 53.263 42.4294 0.00111921 0.0237921 0.0299878
1553 6 1 9.23198 43.001 23.7096 0.0073432 0.000472205 -0.000656224
1788 7 4 15.9793 42.7249 30.2631 0.00311756 -0.00123381 0.00369349
2723 10 1 23.1596 41.4547 25.2008 0.00172775 0.00229906 0.00146123
1020 4 1 21.0794 39.4382 25.5077 -0.00065205 -0.0053451 0.000563418
2760 10 2 15.6573 36.9313 24.6189 -0.00502393 -0.00598058 -0.00352801
858 4 1 19.7913 44.2269 25.8153 -0.00184206 0.00894752 -0.00521438
73 1 1 22.0055 45.6392 26.2322 -0.00182972 0.00675018 0.00383922
2420 9 1 24.2276 41.5661 30.3682 0.000146449 0.00553304 0.00481978
788 3 2 24.1681 40.4752 29.3738 -0.005359 -0.00457139 -0.000597412
1564 6 1 39.4037 40.0806 24.7745 0.00484226 0.00482419 0.00361713
1407 5 2 30.0727 46.953 33.6761 -0.0128589 0.0159675 0.0127235
1850 7 1 37.8944 39.5192 25.623 0.00363415 -0.00661327 0.00544274
829 3 2 37.1666 46.5351 25.2036 -0.000433473 0.0115189 -0.000555955
1836 7 1 35.6516 46.8903 26.8199 0.00126789 0.00644195 0.00370583
90 1 3 32.3742 37.3301 29.3313 -0.00252941 -0.001792 0.00168826
2497 9 2 40.6055 43.2993 33.1094 -0.00326808 0.00747965 0.0173309
2134 8 4 40.5243 40.7747 29.3583 -0.00308549 -0.000593059 -0.0002631
1960 7 2 43.2883 40.6233 24.7974 -0.00248731 -0.00802504 0.00190141
197 1 1 44.3181 42.1417 28.7837 0.00142257 0.00222982 -0.00136371
2512 9 2 52.1399 38.3495 24.8342 -0.0054843 -0.00637928 -0.0209283
383 2 1 50.8885 40.561 31.0348 0.00430615 0.00597438 0.00413539
2030 8 1 51.192 38.6166 28.025 -0.00204423 -0.00495098 -0.00257379
365 2 4 44.0811 41.4522 23.6734 -0.00335818 0.00358027 -0.00105967
1707 7 3 50.2623 36.2086 31.2327 0.00169306 -0.00424115 0.00486686
2272 9 4 49.081 42.7512 26.2447 -0.000733425 -0.00138582 0.00243123
1705 7 1 48.6235 41.7939 26.8317 0.00147908 0.00105775 -0.000237706
1550 6 4 43.6387 46.5785 29.733 -0.00317932 0.0039524 0.0027246
2200 8 2 36.5961 38.2362 28.1154 -0.0333213 -0.0018474 -0.00296454
1312 5 4 51.4724 43.402 25.8451 0.000743145 -0.00261274 -0.00603792
639 3 1 51.222 41.4782 22.4167 0.0017255 0.00359033 -0.00048682
1952 7 2 51.7498 45.2501 25.858 -0.00714998 0.0188517 0.00251665
1693 7 3 48.829 39.5352 25.4368 0.0016076 -0.00358599 -0.00483537
1364 5 2 54.1216 36.5425 22.2338 0.00299837 -0.0274861 0.0010274
1309 5 1 57.8803 39.1235 25.1454 0.00464584 0.00212448 -0.00472133
2390 9 3 56.2527 39.4187 27.1107 -0.00136879 -0.00311559 -0.000208635
234 1 2 57.3732 40.9243 26.4219 0 0 0
1658 6 2 2.67231 31.1642 43.6615 -0.00730789 -0.0126728 0.0311424
2421 9 1 2.72342 40.8433 22.0748 0.00801253 0.00230581 -0.00464487
1329 5 1 54.1087 43.3734 27.4727 -0.00473346 0.00473965 -0.0018485
1898 7 1 2.64219 47.4682 25.6641 -0.00193562 -0.00152616 -0.00844538
44 1 1 6.06717 48.2021 28.2186 -0.0068904 0.00552996 0.00383328
1628 6 1 0.0442967 51.6694 24.7745 0 0 0
1124 4 2 2.87036 45.0598 27.4099 0 0 0
1092 4 2 0.428314 51.0748 28.5847 0 0 0
1285 5 1 5.93267 49.2111 27.4879 -0.00568293 0.000284079 0.00903595
60 1 4 2.32977 47.117 27.011 0.00223368 -0.00173017 -0.00226752
407 2 3 11.1091 47.9395 20.9258 0.00385538 0.00463199 -0.0107325
2320 9 1 16.1186 53.0642 22.0294 0.00384648 0.00629362 -0.00346802
909 4 1 21.0403 46.3273 24.3654 0.00459867 -0.0013988 -0.000792438
1292 5 1 16.7096 45.3992 21.379 0.00113989 -0.000448969 -0.00755925
2805 10 2 8.13997 44.4907 20.5871 -0.0267085 -0.00969852 -0.000945288
1552 6 1 20.2453 47.8448 26.272 -0.0014179 0.00112166 -0.0045688
1663 6 2 21.2937 53.2968 26.9428 -0.00799055 0.00706374 0.00391722
2045 8 1 20.2465 48.4967 30.0272 -0.00475707 -0.000107967 0.00189534
2708 10 4 26.124 49.9363 31.0463 -0.0033984 0.000553659 0.00267804
1819 7 4 32.5266 44.4357 22.6684 0.00576636 -0.00755609 -0.00509341
594 3 4 29.0074 48.3886 25.6623 -0.00195413 0.00297868 -0.00122757
2151 8 1 24.379 46.5854 22.8432 -0.00703129 -0.00417259 -0.00641036
1896 7 4 27.96 44.9138 28.0902 0.000609918 -0.00800954 6.00126e-05
2594 10 1 21.6102 45.2753 21.5737 -0.00580828 -0.00301323 -0.0105879
1923 7 2 34.6226 54.9708 30.4491 0.000446688 0.0111397 0.00857809
1366 5 2 30.0413 4.38842 28.1228 -0.0021769 0.0256077 0.00518844
370 2 1 29.7281 50.9831 22.2469 -0.00279109 0.00139416 -0.00195152
476 2 1 41.6532 48.5495 24.4239 0.0122985 -0.00438688 -0.00315627
475 2 4 39.2039 51.446 26.2679 0.0043898 0.0030233 -0.00531238
1993 8 1 41.0115 51.1422 27.3126 -0.0012951 0.00417526 0.00123683
1472 6 1 39.5626 48.4942 28.8914 -0.00224841 -0.0024262 0.000302399
141 1 1 44.1155 45.1768 22.2804 -0.00144664 -0.00210657 -0.00202737
1654 6 2 54.342 47.6085 30.4709 0.001929 0.00288736 -0.0144189
2482 9 2 44.0649 44.9211 32.3496 -0.0121907 -0.00508577 0.0146545
837 3 2 56.0517 53.0038 25.0859 0.00213575 0.011261 0.00694503
1258 5 1 51.5581 47.8424 28.6071 -0.00216283 0.00266236 -0.00428756
1169 5 1 41.6999 48.2208 28.5283 -0.00741423 0.00409795 -0.000142548
2062 8 1 53.0437 45.7548 29.5002 0.000254708 -0.00381837 0.00652955
2370 9 1 43.6429 50.499 22.9303 -0.00540714 0.00108009 0.000384359
996 4 1 53.0916 48.4116 26.2083 -0.00267363 -0.00120624 0.00165108
1424 6 1 52.0446 48.5403 22.8578 0.000373226 0.00264585 -0.000790657
286 2 1 51.9175 44.1382 22.3152 0.00121241 0.00785543 -0.0011408
398 2 4 48.5343 49.6211 24.1115 -0.0010967 -0.00360084 0.000331358
1577 6 1 48.6134 55.4999 25.7688 0.00617765 0.0117812 -0.00617458
820 3 2 37.1158 50.258 29.0072 -0.0165205 0.00687098 -0.000908134
1814 7 1 48.5554 48.0308 15.3967 0.002105 0.00227678 -0.0156168
1128 4 2 55.0351 47.2799 28.0479 0.0142105 0.0113803 -0.00808907
1219 5 1 55.2717 49.0001 26.2217 0.00063937 0.00102367 0.00333716
1116 4 2 57.5007 45.8122 25.6558 0 0 0
2131 8 1 53.0945 51.5669 28.8982 -0.00196472 0.00426374 -0.00100542
2388 9 1 53.8373 53.4351 24.534 0.00058487 0.00362901 -0.00132381
2763 10 2 57.3874 52.1655 27.0434 0.00696973 0.00456763 -0.00509245
1694 7 1 4.63187 58.8911 24.9634 0.00389139 0.00262774 -0.00269792
2680 10 1 2.79772 53.5214 26.5687 0 0 0
1995 8 1 56.7792 56.2442 20.7226 -0.00541596 -6.91944e-06 -0.00568562
1279 5 1 12.9253 56.0983 29.8754 0.00378226 -0.00452087 0.00308659
1251 5 1 7.41121 57.3618 28.2854 0.00196993 -0.00562235 0.00324262
1596 6 1 12.7574 59.4419 24.5573 0.00640164 0.00302762 -0.000920469
1100 4 2 15.351 57.7901 16.3337 0.00161485 0.00788024 -0.0239338
1646 6 2 12.6345 56.8315 36.1689 -0.00623209 0.00642098 0.015881
946 4 1 17.14 55.6314 29.8043 0.00234197 -0.00492231 0.000835144
666 3 1 19.597 57.4694 25.5995 0.00371603 -0.0041116 -0.00348218
1530 6 1 16.2213 51.9666 22.1962 -0.00402222 -0.00665977 -0.00320902
862 4 4 20.1524 0.102615 27.6991 -0.00439403 0.000710771 0.00048813
474 2 4 19.0073 56.7578 24.4784 -0.00126686 -0.00197337 -0.00575437
2786 10 2 16.2821 48.8234 13.498 -0.000926875 -0.0118156 -0.0290017
1638 6 2 12.8788 2.64913 39.1862 -0.020733 0.0111667 0.027607
2612 10 4 26.1246 58.6038 29.5173 0.00057381 0.00415959 0.000586021
1158 5 4 26.2609 58.1327 33.0171 0.00207304 0.0011296 0.00620834
2049 8 1 27.5452 51.9456 32.567 -0.00292978 -0.00334686 0.00604369
813 3 2 38.7433 5.36732 36.9283 0.00912649 0.0112119 0.0179637
1017 4 4 31.1894 54.3317 25.356 0.000285231 0.000604535 0.00516272
2591 10 1 36.101 6.09904 23.0197 0.00441209 0.0136414 -0.0010196
2634 10 4 33.6186 52.9792 23.2436 0.00050021 -0.00173303 -0.00439091
2047 8 1 34.9327 0.972716 22.9038 -0.00458131 0.00668995 -0.00201177
1303 5 1 33.4174 54.4939 25.3319 -0.00627309 -0.00093196 -0.00197235
2332 9 1 38.8152 57.8726 25.7287 0.00154777 0.00662941 -0.00396498
2574 10 1 39.4618 54.6115 29.0389 -0.00438559 0.0042651 0.00163052
1704 7 1 41.5482 51.0633 27.4702 -0.00121109 -0.00359619 0.00379159
1847 7 1 39.8517 53.0529 27.8953 0.00187405 -0.00291657 0.00346595
2383 9 4 37.0677 52.8775 22.5863 -0.00194057 -0.00394238 -0.00479242
1812 7 1 33.2086 56.2159 27.5258 -0.00908439 0.0033186 -0.00237197
1257 5 1 43.0622 53.7414 29.2504 -0.00291834 0.000389723 0.000386525
2722 10 4 46.3331 57.935 26.7818 -0.00141847 -0.00363724 0.000674405
2450 9 1 51.7912 58.4013 22.0317 0.00176002 0.00473203 -0.000205407
1113 4 2 54.724 0.0755681 32.4479 -0.00730877 -0.0146494 0.00169634
1048 4 1 49.4397 59.5161 25.0111 0.000335976 0.00562697 0.000243766
1264 5 1 48.7748 53.3145 26.1527 -0.00272358 0.000715606 0.00203985
96 1 4 51.7879 53.376 24.4072 0.00118248 0.00408041 0.000352903
2589 10 1 52.634 52.5531 26.5061 0.00421805 0.00460483 -0.000581196
873 4 1 52.4456 55.0445 26.9593 0.00359116 -0.00516186 -0.00626872
1756 7 1 52.7873 55.6946 29.0557 0.000940885 -0.0013566 0.00456063
1696 7 1 51.5976 54.2458 24.8637 0.00040079 0.000447614 -0.00358639
1355 5 2 53.1066 51.8103 23.1287 -0.0212759 -0.0145471 -0.0141675
1190 5 1 52.3974 55.6622 30.3411 -0.00233742 0.00366414 0.00285275
775 3 1 59.0716 56.189 23.2127 0 0 0
2309 9 1 59.8588 53.952 23.0224 0 0 0
2599 10 4 58.6706 58.2995 23.6288 0 0 0
2669 10 1 59.1555 55.7327 28.69 0 0 0
270 1 2 58.3941 53.2591 25.1186 0 0 0
157 1 1 57.7924 55.0206 25.8177 -0.00112526 -0.00628772 -0.00741479
2513 9 2 1.90294 6.85162 33.9445 -0.000210178 -0.000907588 0.00569421
2034 8 4 1.36157 2.77695 33.3969 0 0 0
2452 9 1 2.19037 2.47218 37.0865 0 0 0
1415 6 1 1.77793 4.85799 36.3272 0.000926132 0.000230139 0.00195559
1838 7 1 3.80949 2.83346 38.5626 0.00277841 -0.000407453 0.00286114
1239 5 1 1.94419 3.62381 37.7074 0.00258912 -0.00303852 0.00227237
2464 9 1 57.3177 3.08911 28.7307 -0.0063364 0.00566375 -0.00873492
2783 10 2 11.5972 12.3211 34.367 0.0154515 0.0239847 0.00622642
2234 8 2 25.6628 12.2274 45.2163 0.0245979 0.0134032 0.0254702
8 1 4 14.449 7.62963 30.0102 0.00145086 0.00201607 -0.00512534
2477 9 1 12.1065 7.18683 33.5235 -0.000253398 0.000820547 -0.00386388
606 3 1 17.5585 1.06996 38.5651 0.00697316 -0.00816024 0.00424257
1718 7 1 11.5246 4.97631 36.0252 0.00580444 -0.00206896 -0.00205139
2782 10 2 4.82371 6.74002 28.9597 0.00261103 0.00360413 -0.00826757
2055 8 3 14.0989 1.76558 33.5414 -0.00427977 -0.00029708 0.00161973
307 2 1 17.9413 1.95875 35.0949 -0.00661969 -0.00208572 -0.000387393
625 3 4 24.4481 2.7306 35.3874 0.00883651 -0.00574731 0.00536367
2736 10 1 27.8102 2.91132 33.4242 -0.00399158 0.00543044 0.00397063
347 2 1 22.2411 2.37687 37.9239 -0.0074052 0.00168541 0.0029513
386 2 4 27.0431 7.09791 33.9612 -0.00339744 0.000196998 -0.00279279
802 3 2 9.16268 3.08007 27.7617 -0.0296893 -0.00119435 -0.00560649
722 3 1 25.4149 1.13312 33.5492 -0.00444352 -0.000529776 -0.0043932
1367 5 2 22.3704 55.7424 29.9951 -0.0116094 -0.0122764 -0.0123471
664 3 1 35.8524 0.0502504 35.1258 -0.0023059 -0.00139952 -0.00332583
1173 5 1 40.658 58.8829 37.0552 0.000739439 -0.00432993 0.00896474
2660 10 1 39.0755 8.54568 33.277 -0.00429989 0.00231587 0.00578573
1968 7 2 43.2484 0.614003 36.466 0.00834434 -0.00339123 -0.000951099
1233 5 4 37.2884 1.52921 35.7511 -0.0011578 -0.00321294 -0.000259592
2702 10 1 45.3788 4.13411 30.8931 0.00301495 7.32091e-05 -0.00367487
108 1 1 38.4862 5.34065 33.1127 4.40936e-05 -0.00158483 -0.00152315
1263 5 1 42.0938 9.78591 33.0562 0.000117907 0.00671111 -0.000130702
848 4 1 49.1392 12.1534 41.0033 0.00851736 0.0176416 0.0108092
1632 6 2 38.7071 3.96564 38.6452 -0.00700706 0.00437559 0.00856019
1716 7 3 38.2299 5.3061 32.5747 -0.00192183 0.00117333 -0.00573492
1950 7 2 52.2593 0.364451 34.8635 -0.00908607 0.00740079 -0.00451909
2629 10 1 51.2169 1.56345 34.1046 -0.00136469 0.00178569 0.00305396
868 4 1 42.5961 58.7592 29.2525 -0.00506703 -0.00435214 -0.00265094
2557 10 1 46.4989 6.84057 35.4551 -0.00245406 -0.000611624 0.00168186
603 3 4 57.8537 1.49107 36.4541 0 0 0
600 3 1 59.1241 5.38449 36.2702 0 0 0
513 2 2 2.88724 2.23729 36.0243 0.013913 -0.0112868 0.00771681
2017 8 1 2.45864 9.86372 36.0648 0 0 0
1806 7 1 2.39455 10.7608 34.8533 0 0 0
907 4 4 0.452655 10.5464 31.4116 -0.00181436 -0.00256199 -0.0018264
794 3 2 1.59829 5.40789 35.8409 -0.0178139 -0.0069015 -0.00280238
1256 5 1 4.2918 7.56906 33.49 0.00296817 0.00148135 -0.00496023
2794 10 2 13.9244 12.6612 34.8076 0.0122579 0.00844726 0.000681217
1834 7 1 11.1285 6.74164 36.8625 -0.000734682 -0.00158099 0.00461356
914 4 3 8.21846 12.5568 34.129 -0.00231215 0.000754391 -0.000703572
885 4 4 14.2026 9.73449 32.3781 0.00153636 -0.00464018 -0.00320658
136 1 1 20.9755 10.6103 32.7231 0.00769051 0.000675969 0.000565881
1172 5 1 15.5002 9.94123 31.805 -0.00137719 -0.00345542 -0.00109744
2471 9 4 18.0297 10.5633 37.1614 0.000437577 -0.00358214 0.00064291
391 2 1 18.379 6.19059 33.258 -0.00468639 -0.00451645 0.00113
988 4 1 15.794 11.2311 36.4459 -0.00598358 0.00212822 -0.00203349
842 3 2 40.6519 31.1166 24.9988 0.041124 0.045834 -0.0155776
1941 7 2 28.2253 15.1853 50.6999 0.00238331 0.00524128 0.0288092
261 1 2 25.952 4.68508 40.1663 -0.00296217 -0.0163549 0.01942
835 3 2 30.0048 21.8782 46.8247 0.00250512 0.0207245 0.02357
1047 4 1 21.9069 13.0303 30.6481 -0.00182449 0.00201042 -0.00423911
426 2 1 24.6071 7.87546 34.7673 -0.00144687 -0.0015158 -0.00501022
95 1 1 33.0531 16.5174 38.3353 0.00514617 0.0077122 0.00227622
1615 6 4 42.6635 7.2402 34.6452 0.0145665 -0.0038484 0.00129585
2321 9 1 34.5962 11.9115 28.862 0.000744974 0.0030898 -0.0037576
115 1 1 39.4784 12.6178 32.5654 0.00465226 0.00137056 0.000814558
1843 7 1 38.2997 6.46681 35.9916 0.00296181 -0.00834972 -0.000184574
2537 9 2 29.3614 18.2642 30.0036 -0.0135197 0.0070155 -0.00345902
1930 7 2 37.123 3.3966 47.7706 -0.00322014 -0.0103165 0.0358877
2248 8 2 37.4725 8.22803 35.6708 -0.00642683 -0.000818073 0.0112785
172 1 1 41.4128 14.0355 36.845 -0.00329593 0.000257789 0.00290058
330 2 1 42.4841 15.4174 32.8608 -0.00362254 0.00124901 -0.00315296
1562 6 1 51.8689 11.856 32.2707 -0.00350433 -0.00284984 -0.00226487
1973 7 2 50.271 8.61341 32.2878 -0.000263993 -0.0114489 -0.00049921
2173 8 1 56.2312 6.72455 33.6935 -3.97494e-05 0.0021946 -0.00421988
2700 10 4 58.117 7.09057 32.6928 -0.00120047 -0.00582503 0.00441288
2013 8 4 55.6356 8.1181 35.2231 0.000174674 -0.000939227 0.00154763
2166 8 4 55.2441 11.3898 32.1463 -0.000497391 -0.00134116 -0.00194792
1115 4 2 58.9565 10.5129 34.7749 0 0 0
922 4 1 54.9384 14.1595 31.3624 -0.00152024 -0.00175875 0.000275427
2102 8 1 56.4277 12.8174 36.5837 0.000854601 -0.00323918 -0.00393988
2389 9 1 7.51931 16.8568 31.8864 -0.00042508 -0.00458068 -0.00212154
2567 10 1 2.65477 17.2251 31.094 0 0 0
1990 8 4 0.0344758 20.9812 33.3674 0 0 0
2564 10 1 1.35489 17.9627 32.922 0 0 0
2018 8 1 2.19085 19.9815 36.7156 0 0 0
183 1 1 2.7406 18.2822 32.0351 0 0 0
1740 7 1 2.51176 22.1491 35.3867 0 0 0
12 1 1 59.6616 18.8526 34.6533 -0.00196362 -0.00199331 -0.000886297
2208 8 2 13.8928 25.6826 36.4033 0.0225458 0.0204498 0.00672382
1575 6 1 10.2847 20.893 30.6099 -0.00438369 -0.00185425 0.000806502
2174 8 3 14.2322 18.948 37.7365 0.000275374 0.00463432 0.00253156
1712 7 1 13.7083 17.892 34.3399 0.00638122 0.00383569 -0.00417925
140 1 4 7.65324 20.8026 34.8413 -0.0127818 0.0133923 0.00259783
2061 8 1 11.1563 20.232 35.8994 0.000854897 -0.00021035 -0.00248517
359 2 1 20.5298 17.7681 29.5025 0.00204543 -0.00282382 -0.00238918
450 2 1 14.5017 15.8731 32.8479 -0.00215274 -0.000747911 -0.00438153
455 2 1 20.0625 18.2237 32.3219 -0.00360104 -0.000180341 -0.000109277
1994 8 1 23.2996 22.2228 36.0105 0.0013018 0.00909407 0.00638764
880 4 1 25.0942 19.849 33.8368 -0.000478461 0.00206896 0.00478494
1471 6 4 24.7211 20.0822 31.6226 -0.000318552 -0.00111711 -0.00429267
732 3 1 26.0675 19.9455 33.3342 -0.00291655 0.0033721 -0.00468212
128 1 1 38.2668 17.8503 33.5379 0.00358835 -0.000587182 0.00453048
1325 5 1 36.1455 23.6098 35.7118 -0.0006954 0.00229207 0.000641504
2273 9 4 37.0747 16.5861 28.7077 0.0012007 -0.00265623 -0.0045933
2065 8 1 35.7835 14.8021 32.4208 0.000661239 -0.00520823 0.00122342
2631 10 1 38.6932 13.1519 24.7997 0.00774334 -0.0056127 -0.0125912
2469 9 4 33.4923 19.7507 27.7712 0.00545889 0.00444827 -0.0117929
2614 10 1 39.2742 17.1423 33.219 -0.00599422 0.00260681 -0.00278429
1987 8 1 44.7381 21.3772 37.1233 0.00646866 0.000339775 0.0056729
24 1 3 44.4374 21.2835 35.7818 0.000523229 0.00127116 -0.000580338
2157 8 1 40.7126 13.9947 36.6003 -0.00384082 -0.00312524 0.0037724
593 3 1 42.0684 16.2462 30.9782 -0.00514881 -0.00228551 -0.00109356
186 1 1 48.6375 19.6637 37.2552 0.0136165 -0.00509346 0.00292912
2715 10 1 39.2521 18.8051 32.5247 -0.00292397 -0.00506249 0.00214031
1009 4 1 46.1956 17.5274 34.6794 -0.00108408 0.000988949 0.00709778
396 2 1 45.4898 18.0127 39.2333 0.000944307 0.00431205 0.00879634
1604 6 1 51.751 17.5939 32.6408 0.00398882 -0.0008915 -0.00236584
2456 9 3 52.5239 20.1487 34.5772 0.00410833 0.00597498 -6.70361e-05
2685 10 3 49.1144 18.6525 29.4382 -0.00533936 -0.0025083 -0.00434922
2673 10 1 52.3861 18.6039 32.4427 -0.00452891 -0.00194609 -0.000246919
2451 9 1 41.7092 17.7905 32.5939 -0.00789252 0.000753975 -0.00126206
2417 9 1 52.0793 21.1316 30.9149 0.000560934 -0.00637294 0.00493178
1086 4 2 41.2725 19.1513 39.7859 -0.00941029 0.00341738 0.00585812
2682 10 1 49.7012 18.3885 29.5612 0.00280794 -0.00404068 -0.00382391
2521 9 2 49.6145 16.9951 34.7903 0.00240244 -0.00581943 -0.0043671
20 1 1 57.5229 14.909 31.1451 0.0061943 0.00121071 -0.00251622
1224 5 4 58.2159 19.7692 33.6789 -0.00184377 -0.000813987 0.0024357
216 1 2 0.555942 15.3458 28.3459 0.0129659 -0.00859444 -0.0188818
61 1 4 55.0227 20.0677 35.0712 -0.00420332 0.000605727 9.70625e-06
650 3 1 53.1277 22.2918 31.5956 -0.0015818 -0.00570679 -0.00107093
2573 10 1 53.6009 18.8234 34.0189 0.00318948 -0.00818156 -0.00194246
750 3 1 58.7905 20.0062 30.8461 0 0 0
313 2 1 58.0347 20.8091 31.681 0 0 0
2250 8 2 55.8285 15.279 34.7296 0.00534523 -0.00393399 -0.0117202
1522 6 3 59.726 24.2144 38.0286 -0.00163718 -0.00419399 0.00831555
692 3 1 59.9628 29.5265 31.6499 -0.0040202 0.008296 -0.00399016
1803 7 1 1.71544 22.9033 30.2018 0 0 0
629 3 1 2.96315 26.4085 36.339 0 0 0
773 3 1 2.36149 29.3017 34.3872 0 0 0
1503 6 1 4.57697 27.1013 36.5649 0.00779822 -0.000477764 -0.00303295
2789 10 2 55.0899 23.9497 33.4999 -0.00364203 -0.0205312 0.00633328
1635 6 2 1.87801 25.4944 21.6953 -0.00668464 -0.0109913 -0.0308721
413 2 1 12.0563 33.3279 33.3701 0.00728665 0.00986114 0.006373
2009 8 1 13.7227 27.3408 32.6224 0.0176596 0.00691316 -0.00160372
2769 10 2 10.7056 38.5536 33.7962 -0.0125297 0.028161 0.00458294
2431 9 1 21.9085 32.2117 37.7181 0.0013509 0.00456389 0.00550573
1874 7 4 16.674 27.1462 36.5383 0.000232716 -0.000204223 0.00483899
2566 10 4 17.1198 26.2022 32.733 0.000683181 0.000379612 -0.00385128
740 3 1 18.6756 24.5453 32.5343 -0.00436886 -0.0012067 -0.00104153
428 2 1 25.123 26.4376 28.7111 -0.0028953 0.00193121 -0.00266803
2280 9 3 28.1063 30.2355 32.8 -1.16532e-05 0.0034222 -0.00421656
1193 5 1 26.7472 24.0347 33.5249 -0.00482001 -0.00312752 0.00086462
969 4 1 31.1302 24.1148 31.0287 -0.000980627 -0.00143346 0.000309655
1221 5 1 29.6328 28.9431 33.4921 -0.00151746 -0.000709511 -0.000435349
2112 8 4 37.8369 23.1719 33.7383 0.0016428 0.000487269 -0.00340862
23 1 1 35.7603 25.9854 37.3412 -0.00164429 -0.00518887 0.00133535
807 3 2 26.4238 17.6414 34.4333 -0.00803387 -0.0136254 0.00207796
1197 5 1 40.7759 25.2253 32.5388 0.00038839 -0.00125798 0.00399751
283 2 3 43.2094 27.6857 36.3167 0.000458435 0.00588341 -0.000923542
970 4 1 42.6751 30.0944 34.564 -0.00127202 0.00352009 -0.000494589
2563 10 1 51.4033 27.6601 30.4947 -0.00154551 -0.00172551 -0.000948566
1150 5 1 49.3976 23.8976 36.262 -0.000935081 0.00154937 0.00182977
1775 7 4 43.7982 28.3518 30.3097 -0.00605963 0.0077168 -0.0035107
1318 5 1 51.5623 27.6365 28.9633 -0.00406815 -6.81928e-05 -0.000951092
2336 9 1 48.3777 26.6876 38.725 -0.000795851 0.00185069 0.00404421
1605 6 1 46.3276 29.5372 36.5498 -0.00176381 0.00304538 0.00160672
995 4 4 45.5159 24.3555 33.4002 -0.00224097 -0.00105439 0.00103249
249 1 2 43.6132 25.0328 27.5922 -0.00904848 -0.00867807 -0.0103085
654 3 3 55.9455 27.3727 35.0079 0.000428131 -0.00186623 -0.00208219
624 3 4 54.0693 24.0545 34.7349 0.00233421 0.00314377 0.00554833
701 3 1 52.6054 26.3386 35.2338 -0.00323756 -0.00182357 0.00164916
1720 7 4 54.9212 25.9612 35.3869 -0.00063474 -0.000616082 -0.00328986
1499 6 1 55.6842 29.856 30.8792 -0.00858787 0.00108891 0.003299
2558 10 1 56.7479 28.2244 35.0917 -0.00301805 -0.00146791 -0.000889095
830 3 2 53.3386 27.2622 38.1607 -0.00738991 -0.00702482 -0.00779837
776 3 1 3.66657 29.4166 32.2581 0.00104766 -0.00943275 0.00501879
1362 5 2 2.76874 35.9095 31.706 0 0 0
659 3 1 1.05873 36.2423 33.7183 0 0 0
628 3 1 0.310743 35.7845 32.4359 0 0 0
343 2 4 1.91738 35.2796 35.7854 0 0 0
545 2 2 1.41483 33.4484 32.4153 0 0 0
2386 9 1 57.8025 37.1074 38.5438 -0.00467215 0.00191561 0.00241477
1071 4 2 56.4824 26.998 30.7872 -0.0403602 -0.0299894 -0.00234582
1153 5 1 3.86463 31.9663 33.1375 -0.00495285 0.000627565 0.00059179
808 3 2 12.757 34.8907 34.6395 0.00814324 0.00493159 0.00120402
420 2 4 9.90981 31.4657 32.4892 -0.00233753 0.000302052 0.00412922
1286 5 1 15.9292 37.6271 37.6954 0.00563088 0.0127844 0.00424813
164 1 1 11.4698 38.085 36.3834 0.00145076 0.00569183 -6.17356e-05
356 2 4 8.12868 33.3094 30.3568 0.00612181 0.00339832 -0.00345595
535 2 2 14.0398 28.194 25.671 -0.00142442 -0.014084 -0.0111729
1369 5 2 13.8253 19.5326 40.2155 -0.00196102 -0.0256171 0.00933044
1125 4 2 19.6187 37.0869 34.4777 -0.00235507 0.00364407 0.00520285
2648 10 1 21.8099 33.8199 32.5526 -0.00035065 0.00622383 0.00186045
1785 7 1 14.7855 32.4018 33.0137 -0.00531425 0.00127503 -0.00105742
122 1 1 12.4111 33.2295 27.7874 -0.00567475 -0.00419471 -0.00671987
1650 6 2 12.0546 29.2234 36.6024 -0.0137875 -0.00599974 0.00357513
1585 6 1 25.4307 32.5457 30.8704 -0.0025819 0.000676937 0.000736984
1013 4 1 23.6033 36.4154 37.458 -0.000250296 0.00421523 0.00142368
1815 7 1 21.7801 35.6725 33.6683 -0.00746188 0.00212113 0.00102923
551 2 2 23.5602 28.0633 39.284 -0.00379319 -0.0135632 0.00722359
435 2 1 28.6239 34.9208 30.3322 -0.00135273 -0.0043017 -0.000202786
1317 5 1 27.3574 32.2268 29.4732 -0.00111229 0.00323766 -0.00943838
755 3 3 26.0605 37.4419 33.3659 -0.00136708 0.00630087 -0.00583777
1900 7 1 33.5085 31.2106 38.3008 0.00100652 -0.0043842 0.0108436
88 1 1 32.9064 34.0213 37.607 0.00306613 0.00314408 0.00419269
1807 7 1 40.4217 35.0722 32.8022 0.0054054 -0.000541065 -0.00101017
242 1 2 29.9397 21.4336 28.8099 -0.0195576 -0.0294288 -0.00627315
597 3 1 39.2338 33.7432 36.6803 -0.00360439 0.000753109 -0.000994122
1465 6 1 44.1452 33.0996 33.8151 -0.00286999 -0.00145653 0.00391664
2811 10 2 53.0241 34.9973 35.722 0.0156846 -0.0253033 -0.0173951
2365 9 1 51.1788 34.0562 35.6083 -0.00111941 0.00115227 0.00177227
1181 5 1 46.2554 32.6042 30.1227 0.00121603 0.00355666 -0.00123211
1149 5 1 47.4247 34.0163 30.7546 -0.00164688 0.00684227 -0.000878651
2437 9 1 46.6993 33.4949 33.0391 -0.00318733 0.00428598 0.00195749
1041 4 1 43.1122 32.8414 32.2019 -0.00632945 -0.00362781 -0.000124065
752 3 1 48.6594 35.5426 31.8201 -0.00250411 -0.00234742 -0.00111551
2380 9 1 46.2002 33.1821 31.638 -0.00146523 -0.0051094 -0.00528824
2221 8 2 45.5176 44.2416 41.8319 -0.018631 0.0312826 0.016656
1748 7 1 47.6382 37.6992 36.1743 -0.0014663 0.00765996 -0.00175637
2207 8 2 51.2126 30.6764 26.2687 -0.001601 0.0143504 -0.00761844
1609 6 1 54.5685 35.6913 31.8771 -0.000888496 0.00150293 -0.000156154
1918 7 2 58.9308 33.6907 33.2768 0 0 0
2526 9 2 6.13339 34.584 31.5478 0.00364246 -0.00267987 -0.0202284
1864 7 1 0.899078 41.8298 36.3928 0 0 0
661 3 1 1.98329 43.8388 37.4809 0 0 0
264 1 2 54.6593 49.1867 28.8555 -0.00598986 0.00889124 -0.00843263
2785 10 2 13.4052 37.5672 39.8896 -0.00132078 -0.0124042 0.011704
2486 9 2 10.6525 36.9804 27.8128 0.0339389 -0.0175143 -0.0144927
2385 9 1 13.4253 38.4254 38.2549 0.00651638 -0.00175335 0.0111999
682 3 4 9.11141 41.9248 31.7495 0.00166077 -0.00212888 -0.00149251
1619 6 1 13.1824 43.2091 30.1249 0.00523061 -0.00224332 -0.0109977
1934 7 2 9.46593 36.819 32.8966 0.00254614 -0.00325177 -0.00799939
2784 10 2 26.0163 32.3326 41.0608 0.0117375 -0.0175414 0.0211815
2085 8 1 19.0507 40.3925 35.5929 0.00156586 0.000387984 0.00305175
2086 8 3 17.8088 40.9346 38.5602 -0.00434242 -0.00175009 0.00440367
2338 9 4 17.63 43.8728 34.2 -0.000137364 0.000518464 -0.0029612
1444 6 1 19.3987 47.0696 36.1716 -0.00515673 0.00502096 0.00199561
1582 6 1 20.8039 39.8776 30.84 -0.00319424 -0.000629653 -0.00210806
500 2 1 25.3037 42.6803 37.048 -0.000898988 0.00221619 0.00376544
459 2 1 27.541 46.0364 30.031 -0.000755516 0.00658115 -0.00952792
2048 8 4 38.6089 38.9624 35.3433 0.00442874 0.00165279 0.00252269
2415 9 1 34.6826 40.7961 35.588 0.00530763 0.000519316 0.00197188
713 3 4 35.9176 44.2424 29.8885 0.00487277 0.00248914 -0.00248911
121 1 1 31.8403 45.7065 31.3491 -0.00207163 0.00343797 -0.000122026
2265 9 1 28.7554 38.9969 35.6869 -0.0030366 -0.00228301 0.000593184
469 2 1 27.7919 41.4461 36.9946 -0.00638223 -0.00170302 0.00191795
1879 7 1 34.3322 38.0741 32.111 -0.00283567 -0.00363356 -0.00274882
1630 6 1 30.9599 37.7199 28.4704 -0.00149825 -0.00549609 -0.00394893
1394 5 2 27.8712 48.3632 28.2514 -0.00590384 0.0148974 -0.0167674
2406 9 1 31.7088 42.4878 34.5982 -0.00452422 -0.00155805 -0.00504368
1120 4 2 31.0725 50.9873 34.3625 -0.00964695 0.0133847 -0.00356613
2800 10 2 27.9054 31.6078 28.5221 -0.0161613 -0.0137205 -0.0145781
284 2 1 42.2919 41.5216 31.7245 0.00047135 -0.00261492 0.00343292
812 3 2 52.0838 44.7384 38.5354 0.0126336 0.00303158 0.00257301
2600 10 1 38.0133 40.2079 35.7876 -0.00246555 6.00174e-05 0.000750739
2258 9 1 38.9141 40.5766 37.2535 -0.00501634 -0.000471425 0.00236093
1827 7 1 41.8806 36.5465 35.0355 -0.00227052 -0.00487144 -0.000827326
1566 6 3 42.2327 41.315 31.2795 -0.00165792 -0.00297512 -0.00328632
1763 7 1 41.0946 41.8138 38.546 -0.00439131 0.00222634 0.008425
2036 8 1 40.5577 43.1013 37.2904 0.00205646 -0.00270862 0.00551827
1835 7 1 34.6506 43.0636 32.3388 -0.00727305 -0.00383187 -0.000237897
1569 6 1 45.5781 39.9609 32.0496 -0.0026259 -0.00365216 0.00342358
833 3 2 45.7314 38.1341 37.7921 -0.0181654 -0.0101576 -0.00922621
17 1 4 48.2757 41.6473 31.0866 0.00460346 -0.00264836 0.000949507
1460 6 4 48.5625 40.2802 33.1937 -0.00419322 0.00101721 0.000623922
1007 4 1 48.9635 42.7761 33.3708 -0.000536155 -0.00127843 0.0011556
55 1 1 47.2421 41.378 29.9049 -0.00338087 7.32281e-05 -0.00183783
1992 8 1 52.0148 38.3814 37.2573 0.00616067 0.00474909 -0.00819762
2169 8 1 51.7191 36.9379 32.9169 -0.00306048 -0.00160246 0.0115974
1736 7 1 53.5625 38.9748 29.2754 -0.00381589 0.00103947 -0.00150262
660 3 4 56.0469 39.5647 35.3138 0.00168205 0.0038989 -0.00297601
1392 5 2 57.6728 43.5526 31.6576 0 0 0
1865 7 1 59.4743 39.6298 35.2632 0 0 0
1882 7 1 59.775 42.2264 33.3476 0 0 0
1248 5 1 57.4384 41.7812 34.7491 0 0 0
2205 8 2 57.2404 40.6157 36.8785 0 0 0
2194 8 1 52.2444 45.0269 31.7972 -0.002432 0.00162223 0.00350441
847 4 3 6.19869 45.1281 35.0183 0.00319057 -0.00668373 0.00251001
1031 4 1 59.1746 46.5478 38.5455 -0.00381264 -0.0018478 0.0044616
2678 10 4 13.4788 50.2842 33.1156 -7.8099e-05 0.00303642 0.00147917
379 2 1 13.2713 44.6741 34.8494 0.00265837 -0.0028359 -0.00145588
279 1 2 11.2194 39.4691 19.1626 0.00626323 -0.0124919 -0.0225061
2064 8 3 13.8544 45.4452 30.9467 -0.00104005 -0.00760046 -0.00377835
1932 7 2 14.0285 38.2319 34.4103 0.00933323 -0.0223673 -0.000592685
1561 6 1 13.8188 46.4131 32.6365 0.00105517 -0.00713136 -0.00816886
2438 9 4 22.4474 48.669 28.9209 0.000471951 0.000915281 -0.00490617
2768 10 2 13.2049 49.9894 33.3002 -0.00880686 0.00762439 -0.00454982
648 3 1 22.5241 41.7887 26.118 0.00787559 -0.00882939 -0.0121164
1099 4 2 29.3771 1.44631 37.0494 0.00866715 0.0184037 0.00812472
1126 4 2 26.5065 52.1651 33.9694 -0.00259682 0.00959998 0.0075088
2576 10 4 26.0472 48.5369 34.0347 0.0014573 0.00240295 0.00546014
1943 7 2 27.2242 53.2502 34.7784 -0.00284027 0.00898121 -0.00215879
983 4 1 29.6143 49.8025 37.3652 0.00420272 -0.00118066 0.00506101
1721 7 1 22.4523 52.4927 31.3865 -0.00333918 0.000692152 0.00106953
2263 9 1 26.9091 46.0447 36.8259 0.00056761 -0.00536314 0.00580407
2436 9 1 25.064 45.1457 31.7856 0.000719521 -0.00424402 -0.00493411
1801 7 1 27.2735 45.2961 36.0925 -0.00316279 0.000239984 -0.000857562
762 3 1 22.5491 44.6835 32.1374 -0.00764187 -0.00531366 -0.00046148
2341 9 1 33.8659 50.1817 38.5014 0.00264596 -1.87808e-05 0.00265346
1608 6 1 30.8029 50.8267 40.7536 -0.00141673 0.00140262 0.00661541
113 1 1 34.4584 51.1439 32.3035 -0.00305451 0.000324599 0.000284085
2593 10 1 41.2988 46.8435 28.8137 -0.00100726 -0.00220328 -0.00442351
1346 5 1 38.3516 45.2243 27.7727 -0.00116868 -0.00558318 -0.00559707
2266 9 1 44.1316 42.5642 31.4233 -0.001365 -0.00721094 -0.00243239
615 3 1 48.9228 53.5103 28.9569 0.0113837 0.0036854 -0.00968101
1548 6 4 36.9653 51.987 35.0806 -0.00351766 -0.000523185 -0.00399863
1432 6 1 47.6879 52.45 32.9743 0.00399274 0.0011485 -0.000358686
2738 10 3 47.0548 46.1926 30.7658 -0.00166828 -0.000786812 -0.00139408
495 2 4 49.4654 48.565 38.9286 -0.00187876 -0.0030233 0.00315839
2724 10 1 52.268 50.4531 37.2004 0.00217139 -0.00117924 -0.0041595
2328 9 4 53.3125 49.7414 36.9076 0.00674301 0.00231117 0.00101367
2468 9 1 50.4068 51.6084 29.8396 -0.00246429 -0.000519036 -0.0016741
1290 5 4 49.4439 54.4612 30.0109 -0.0014566 0.00481176 -0.0094845
619 3 1 54.8818 45.9392 35.8947 -0.0005011 -0.00024122 0.00203213
2122 8 4 57.0405 52.241 33.2931 0.000641589 0.00272602 -6.45013e-05
1871 7 1 53.9772 49.5157 34.5847 -0.00225131 -0.00102639 -0.00119389
2465 9 1 58.6091 52.4006 35.3635 0 0 0
1315 5 1 57.5902 46.5356 34.8739 0 0 0
1405 5 2 59.5893 49.0643 35.8723 0 0 0
1965 7 2 52.4842 45.5518 36.1072 -0.0138311 0.00351947 0.00764269
1703 7 1 3.57113 58.7071 35.2381 -0.00181998 0.00100492 0.00579292
1338 5 1 0.110893 59.5085 36.0043 0 0 0
302 2 1 7.73579 57.2625 30.1226 -0.000431552 -0.00166926 -0.000358137
638 3 4 12.0391 58.2339 36.9289 -0.00340751 -0.00224801 0.00499647
2038 8 1 8.95698 52.4975 31.3813 0.00149419 0.00142801 -0.00183321
941 4 1 16.3387 50.8954 32 0.00357204 -0.0046764 -0.00253533
911 4 1 14.6248 59.6982 33.6379 0.000674892 0.000183304 0.000207612
2681 10 1 9.6762 0.787251 37.4069 -0.00549261 0.00264965 0.00036527
2483 9 2 41.8692 57.4551 35.9324 0.0468083 -0.00131075 0.0102303
2578 10 1 20.2583 1.08054 33.7131 0.00101698 0.003641 0.00541801
1400 5 2 12.7285 54.0188 32.7638 -0.00723829 -0.0111529 0.00062424
989 4 1 15.5955 56.8403 41.0941 -0.00134628 0.00603594 0.0105918
2807 10 2 15.6753 58.6043 28.2613 0.000433862 -0.000415973 -0.0129455
2329 9 1 27.5468 56.4922 36.7149 0.00306414 0.000668895 0.00538137
161 1 1 28.1632 0.969344 35.8209 -0.000488623 0.00356739 0.00524015
376 2 4 26.9141 59.607 34.9722 -0.00267244 0.00267953 -0.00152782
7 1 1 22.1861 49.9567 35.6445 -0.00094687 -0.00639043 -0.00125884
2516 9 2 29.0854 4.75675 24.7156 0.000656591 0.0116379 -0.014357
1747 7 1 29.0393 57.6249 37.8738 -0.00343062 -0.000834435 0.00686958
310 2 4 32.7366 54.4165 34.4525 -0.00128691 -0.00163324 -0.000635723
1344 5 2 32.3848 4.70216 27.8277 -0.00173154 0.0150632 -0.0146715
1588 6 3 42.3119 56.6405 37.8435 -0.00142344 0.00721576 0.00869248
1475 6 1 39.6356 57.4363 36.0785 0.00350741 0.00532869 0.00595862
1534 6 1 42.6038 56.1398 31.9668 0.00554136 0.00669278 -0.00192406
155 1 1 36.868 56.5985 33.3549 -0.00227137 0.00647631 -0.000476044
84 1 1 42.9023 51.9208 33.4204 -0.00142131 -0.00245763 0.00298769
466 2 4 39.0544 57.5371 33.3682 0.000307155 -0.00190823 0.000348014
2075 8 1 41.6115 55.9741 32.0291 -0.00327722 -0.000847365 5.2087e-05
2168 8 1 41.455 56.9868 30.317 -0.00367346 -0.00234843 -1.46366e-05
2292 9 1 42.52 55.9536 37.5656 -0.00257363 0.00153233 0.00112015
1174 5 3 51.7005 58.8261 32.1118 -0.00175749 0.00151326 0.00219187
1216 5 1 52.0016 54.9608 33.2832 0.00224261 -0.00311468 0.00188995
1025 4 1 51.7456 52.9352 33.0282 -5.13969e-05 0.000395879 0.000273329
1410 5 2 0.670537 56.3794 34.9297 0.00628849 0.0056478 0.000729799
2312 9 1 54.1763 55.33 31.5073 -0.00226344 0.0013709 -0.00227254
1651 6 2 53.8103 58.5502 36.7248 0.00924309 0.0144073 -0.0150178
1284 5 3 53.4646 52.8066 35.4886 -0.000931431 0.00617486 -0.00404686
2142 8 1 52.73 59.373 34.1978 -0.00431066 0.00732136 0.00137853
975 4 1 56.1886 57.5337 34.4435 -0.0010211 -0.000196006 -0.00491466
2692 10 1 56.4333 53.3266 34.6775 -0.000614281 -0.00836241 0.00343083
1644 6 2 57.1409 56.2734 35.4085 0 0 0
2750 10 1 1.93967 55.9998 32.8471 0.00504928 4.32735e-05 -0.00316063
204 1 4 7.68096 0.56253 38.5713 0.00333253 0.00109452 -0.0055796
2267 9 1 10.9204 3.18436 43.4357 -0.000928211 0.000845789 0.00153798
2294 9 4 15.1571 6.8918 42.0075 0.0044191 0.00329042 0.00274732
389 2 1 9.10934 0.0186727 44.8995 -0.00613591 -0.000706212 0.00223877
811 3 2 8.39096 7.12379 44.2128 0.0158952 0.0161055 -0.00230035
1382 5 2 11.3568 8.96178 32.1583 0.000385528 0.00638378 -0.0140712
2508 9 2 9.55036 6.44752 39.5695 -0.00876589 0.00910164 -0.00958261
1662 6 2 32.64 1.79863 58.2471 0.0301579 -0.0027236 0.029947
1568 6 1 14.7816 8.49797 45.9717 -0.00146243 0.00811568 0.00666365
2401 9 1 12.4352 3.21666 38.7233 -0.00876535 -0.00148024 -0.00225663
518 2 2 12.9641 55.3762 35.7608 -0.00496919 -0.0110769 -0.00838806
271 1 2 30.5709 58.185 34.9664 0.0279233 -0.01395 -0.00728901
2716 10 3 23.5046 0.353079 40.1506 -0.00324376 -0.00257711 0.0037828
1656 6 2 28.7969 9.68437 50.6284 0.00831593 0.0121297 0.0194817
2644 10 1 25.3495 4.83733 39.4211 -0.000211157 0.00385571 -0.00251112
1998 8 3 24.6882 4.55113 36.1555 0.00147602 0.00302993 -0.00825276
2326 9 1 26.8525 3.30252 43.1294 -0.00447181 -0.00267496 0.00250227
899 4 1 33.836 2.08499 41.1274 -0.00329784 0.00143474 0.00436842
683 3 1 28.8819 4.57651 44.8267 -0.00557361 -0.00152692 0.000302507
282 1 2 46.2118 4.28601 36.1675 0.0205581 -0.00441724 -0.00794705
901 4 1 35.258 1.63274 43.952 0.000784718 -0.00825458 0.00538136
672 3 1 35.4487 4.85541 39.4988 0.0110309 0.00578176 -0.00530487
218 1 1 45.3583 2.94158 40.6099 0.00782733 -0.00362046 0.00550738
1541 6 1 37.6342 59.9331 41.6833 -0.00143819 -0.00331968 -0.0032832
1891 7 1 41.2644 6.5681 37.4879 -0.0054006 0.00359525 -0.00122146
2758 10 1 40.7077 6.31942 37.6157 0.00179413 -0.00158253 -0.00253378
18 1 1 44.6165 2.13831 38.1312 0.00643799 0.00345298 -0.00200283
2649 10 1 48.1407 59.9565 42.9197 0.00178517 -0.00139332 0.00270182
137 1 1 50.7317 1.41598 39.3877 0.00107478 -0.00138424 -8.59476e-05
894 4 1 45.3873 6.95183 44.3233 -0.00272258 0.0060292 0.00142004
1163 5 1 49.1571 0.22737 41.4364 -0.00424735 -0.00421798 0.00377295
213 1 4 51.6676 5.59919 42.0527 -0.00123746 -0.00179077 -0.0051305
2463 9 1 46.7316 2.26406 42.2008 -0.00311077 0.000538117 -0.00290707
300 2 1 52.636 1.33067 40.9204 -0.000978291 0.00448012 -0.00276573
736 3 1 54.3522 4.53385 39.6654 0.00359193 0.000749401 -0.00116795
581 3 4 59.3124 4.25335 42.6048 0 0 0
2473 9 1 59.703 6.96354 39.5186 0.00277581 0.00434709 -0.00643952
1648 6 2 1.02459 10.0668 41.493 0 0 0
803 3 2 7.42178 16.8698 44.5269 -0.0166213 0.00928039 -0.00325811
2743 10 4 13.0939 11.3207 46.6953 0.000139349 -0.000493465 0.00345146
1719 7 1 9.67317 14.0589 42.474 0.00201668 -0.00125113 0.000804165
2306 9 4 16.304 16.6703 41.7315 0.00182105 0.00541082 0.00494668
1672 6 2 25.5535 3.09054 46.7734 0.0116384 -0.0134568 0.0129145
1764 7 4 20.1145 11.2843 45.5489 -0.000381403 0.00399234 0.00461583
2097 8 1 18.0369 9.78102 41.4953 -0.00731123 0.00405905 -0.00295191
671 3 1 18.7952 11.1884 39.184 -0.00342506 0.00292749 -0.00186223
2371 9 1 17.6837 12.2808 44.1692 0.000542537 0.00196206 0.00195921
728 3 1 17.4853 13.6049 38.9827 -0.00213254 0.00437015 -0.00430387
2198 8 2 27.9551 20.095 31.7454 0.0141012 0.0114693 -0.0181326
1676 6 2 17.9324 17.479 30.3211 -0.00531849 0.00717112 -0.0156342
2068 8 4 26.2028 9.83711 49.6581 -0.000129693 0.00409209 0.0122091
2281 9 1 22.5049 8.3629 43.5653 -0.0061816 0.00124463 0.000962057
635 3 1 28.5732 14.2307 40.4744 0.00513244 0.0120272 -0.00274773
1863 7 4 30.5007 16.8149 38.5989 0.00231424 0.00425207 -0.00136431
918 4 4 27.4468 14.3473 34.8041 -0.000177134 0.00288515 -0.00980688
559 2 2 26.8262 6.7609 48.3526 0.00503857 -0.0105968 0.00736486
385 2 3 21.8726 10.4218 38.8236 -0.00324586 0.00503268 -0.00755861
1357 5 2 28.2519 49.4879 37.4979 0.00631817 -0.0495216 -0.0123261
1184 5 1 35.8898 10.6623 35.5227 -0.00243376 0.0042138 -0.00492098
357 2 1 26.3148 7.43853 41.5828 -0.00756216 -0.000223211 0.000201537
2259 9 1 32.6085 10.2572 40.5025 -0.0034408 -0.00119357 -0.00186344
2298 9 1 36.2642 16.2536 34.7809 0.00620333 0.00676572 -0.00709463
2623 10 1 37.3309 12.7104 41.6795 0.000966312 -0.00463821 0.0018578
1110 4 2 28.1597 5.91691 38.9136 -0.0107451 -0.016249 -0.00494381
1310 5 4 46.6935 13.4841 44.8513 0.00973665 0.00943513 0.00520905
1507 6 1 46.7735 13.053 39.3644 0.00576651 0.00444196 5.27337e-05
445 2 1 36.053 9.44632 39.0994 -0.0033146 -0.000180096 0.000697362
2155 8 1 38.8558 10.6379 42.8417 -0.00261847 -0.00132496 -0.00070311
1554 6 1 36.7647 11.0371 44.4802 -0.00517086 -0.000299519 0.00316181
715 3 1 37.8244 14.9507 38.1365 -0.000963807 0.00425525 -0.00444932
2019 8 1 42.0209 8.84966 42.3716 -0.00331187 -0.0092946 -0.00218651
538 2 2 53.4082 11.8966 35.6176 0.00519928 -0.0292086 6.34108e-05
1710 7 1 49.9728 10.8432 42.8859 0.0016631 -0.00154407 0.00571071
400 2 4 47.3747 11.8922 39.8263 -0.00111402 0.00441119 -0.000345635
2609 10 1 48.3081 8.80536 43.3751 -0.00320661 0.000204813 0.00292287
1496 6 1 48.4491 13.3828 44.1957 -0.003112 0.000196629 0.00054191
493 2 1 51.7021 13.0308 39.8829 -0.000477901 -0.00124935 0.00126192
2735 10 1 52.061 13.3977 38.8185 0.0024644 0.00495266 -0.00236499
1139 5 1 51.8926 7.65549 44.0543 -2.7796e-05 4.48537e-05 4.92389e-05
1524 6 1 53.3712 7.84648 43.9848 -0.000305798 0.000213757 -0.00622514
1365 5 2 54.0083 9.88354 45.9715 -0.00289718 -0.00387541 0.00208185
748 3 4 55.0756 10.6351 41.0643 -0.000413116 0.00297664 -0.00289917
892 4 3 59.1608 10.6337 44.33 0 0 0
147 1 3 56.8403 14.3103 40.8078 0.000239538 0.00105144 0.00135809
327 2 1 57.2482 13.0119 42.8793 0 0 0
577 3 1 57.1791 10.0481 43.0406 0 0 0
1402 5 2 57.0913 13.1731 41.0622 0 0 0
2625 10 1 56.2718 11.732 44.2571 0.00109534 -0.00179643 -0.00290497
578 3 1 53.8271 9.94534 44.6265 -0.0042672 0.000613618 -0.00323804
2176 8 1 6.61078 20.126 36.2656 0.00235184 -0.0112101 -0.00830485
1856 7 1 2.19532 22.6936 45.2197 -0.00186411 0.00348634 0.0080993
643 3 1 2.0668 16.1972 44.5643 0 0 0
1937 7 2 1.77328 21.4698 38.138 0 0 0
621 3 1 0.192656 20.0999 44.1103 0 0 0
758 3 1 1.89294 16.9795 42.4329 0 0 0
1435 6 1 1.47143 15.2788 42.9687 0.000980517 -0.000638314 0.000332798
2305 9 1 2.9019 23.4292 42.1163 -0.00207094 -0.000279362 0.00359001
277 1 2 9.11121 14.284 42.3043 0.00890688 0.00979106 0.00799614
1243 5 1 3.65464 15.693 37.5711 0.00498193 -0.00829146 -0.0127592
285 2 1 12.6502 19.4664 38.6295 -0.0044583 0.00660568 -0.00177272
1450 6 1 9.69821 17.5444 40.2401 -0.00149398 -0.00174469 0.00186353
785 3 1 9.72718 16.191 42.2402 -0.00365679 -0.00488096 0.00361282
281 1 2 33.4453 15.9723 55.9664 0.0381681 -0.0076437 0.0231494
2033 8 3 15.2996 13.2302 41.4355 0.000132612 -0.00513326 0.00579748
519 2 2 22.5469 34.3072 47.0781 0.00883692 0.0262066 0.00576831
397 2 1 26.9108 16.9772 36.3799 0.00926031 -0.0011619 -0.00446708
1789 7 1 12.9045 16.8782 43.5501 -0.00545401 -0.00113136 0.00183587
491 2 1 15.7817 19.5678 40.075 -0.0047583 -0.00118102 -0.00483352
1416 6 4 28.0969 23.353 43.3414 -0.00143688 0.00295 0.00703467
1967 7 2 26.1025 24.948 40.9103 -0.00600362 0.0127397 0.00265596
2239 8 2 30.1175 13.2904 36.2576 0.0113874 -0.00584854 -0.0100103
237 1 2 24.1988 18.8726 32.2639 -0.00973706 -0.00166327 -0.0144459
132 1 1 32.6889 20.0477 43.134 0.00277904 0.0024187 -0.0014047
2349 9 1 31.6633 16.9554 46.6691 -0.00266924 -0.00290072 0.00621224
2120 8 1 32.3413 17.8398 45.9475 -0.00229093 -5.32934e-05 0.00356151
1012 4 1 30.0049 18.24 38.7606 -0.00250609 -0.0027938 -0.00204915
1445 6 1 34.1417 13.4469 44.8355 0.000340377 -0.00698721 0.00234228
311 2 1 34.3336 20.79 35.9416 0.00712821 -0.00312764 -0.00743998
1396 5 2 35.2966 15.5574 41.4602 -0.00339392 -0.010968 -0.000435547
1938 7 2 31.6716 23.6838 40.9082 -0.0109282 0.0154039 -0.00705647
815 3 2 30.4871 20.3381 38.9392 -0.00814636 0.00154728 -0.00831655
254 1 2 50.1398 22.1637 51.5715 -0.0125179 0.00492662 0.00663013
461 2 1 37.8338 13.7476 43.2321 -0.0031125 -0.00622463 0.00728371
1406 5 2 36.244 12.8461 41.9159 -0.00335636 -0.0103293 0.0057706
1755 7 1 42.4653 21.5364 48.2135 0.00763624 0.0013218 0.00953312
951 4 4 45.6217 14.1327 43.2108 0.0102847 -0.00351833 0.00319425
924 4 1 37.888 18.4966 41.5312 -0.00186859 6.43984e-05 0.0038225
294 2 1 43.5068 22.8815 40.3877 0.000240226 0.00547924 -0.000325224
165 1 1 40.3106 15.806 42.4252 -0.00215985 0.000705985 0.000712679
1474 6 1 45.2422 17.9454 42.3778 0.00117849 -0.00140325 0.00120966
43 1 1 43.239 11.7789 41.8233 0.00467062 -0.0100205 0.00156263
1160 5 1 36.7123 20.7216 44.8385 -0.00838438 0.00135295 0.00360361
1354 5 2 48.2483 20.7151 56.2038 -0.0184567 -0.00790299 0.00512679
171 1 4 48.8179 18.6851 40.9922 -0.000587599 0.00435542 -1.44142e-05
2592 10 1 47.6463 15.3174 43.4484 0.00293378 -0.00430885 0.00132835
1053 4 1 50.9474 16.0394 40.2807 -0.00695823 0.0020057 -0.00550933
91 1 1 47.0482 18.2328 40.6097 0.000275616 -0.00066434 -0.000585302
2358 9 1 52.19 19.2258 43.8851 0.00127529 0.00122252 0.00319201
2251 8 2 50.092 14.0052 32.2105 -0.00285316 -0.00535482 -0.0205377
2514 9 2 46.2756 21.6145 44.6009 -0.0238747 -0.00312115 0.010103
229 1 2 2.86553 22.0393 35.2262 -0.00518047 0.010425 -0.00114648
2496 9 2 56.9834 22.6042 40.3282 0.0109318 0.0118521 -0.0156966
1689 6 2 45.631 16.2501 33.5387 -0.0143785 -0.00074795 -0.0152574
353 2 1 53.7591 17.4441 40.4869 -0.00242842 -0.00425613 0.00377533
1095 4 2 59.1007 16.1735 41.4651 0 0 0
2020 8 3 55.2423 18.1044 41.1514 0.00131446 0.00253062 -0.00124859
2005 8 1 3.18565 28.385 44.9723 -0.00717195 0.00122908 -0.00110242
2288 9 1 8.74301 23.6955 41.8075 -0.00422701 0.00228288 0.00869189
2539 10 3 16.9523 28.5167 46.0135 0.00876597 0.00540523 0.0024292
1809 7 1 14.1531 28.0968 46.7513 0.00103237 0.000103252 0.00613367
369 2 1 17.1349 24.3109 38.5075 0.00453456 -0.00539061 0.00061327
2114 8 4 18.2299 30.8126 39.746 0.000413831 0.00576685 -0.00290784
1984 8 1 17.8002 32.3218 44.3784 0.000580258 0.00516751 0.00264683
458 2 1 19.5007 23.25 41.6136 -0.00146306 -0.00478528 0.00107109
1636 6 2 11.7909 23.6067 41.6685 -0.0117304 -0.00410695 -0.00600884
269 1 2 24.9993 30.0803 44.9246 -0.0036767 0.0142344 0.00463526
974 4 1 24.831 29.3567 41.6801 -0.0047902 0.000985068 0.00268644
1191 5 1 29.8794 32.4342 35.6541 0.00333924 0.00557012 -0.00917467
944 4 1 27.7125 27.1933 42.7588 -0.00241844 -0.00121098 0.00429033
349 2 1 28.4399 24.5163 40.131 0.00763138 -0.00588968 -0.00119629
913 4 1 22.3918 27.3281 42.1785 -0.000469136 -0.000966632 -0.00423348
767 3 1 26.7918 32.1468 41.3329 -0.00514808 0.0047986 -0.00512567
839 3 2 26.4715 19.5159 34.0894 -0.001447 -0.00931433 -0.0204551
1101 4 2 32.9238 35.6097 49.0792 -0.00241167 0.0117033 0.0118381
2478 9 2 31.0487 23.2016 45.2302 -0.00960687 -0.0051765 0.0134888
1695 7 1 34.6108 20.3585 44.3785 0.00550202 -0.00615019 0.005653
915 4 1 30.0224 28.5445 42.911 6.91368e-06 -0.000752201 0.000536238
2302 9 3 35.0261 31.8889 39.462 -0.00207601 0.00402957 0.000489791
1437 6 1 34.6254 29.9641 38.514 0.000102031 0.00391121 -0.00765912
2619 10 3 38.8016 27.6028 41.1934 0.00535994 -0.00208744 -0.00516893
1371 5 2 39.3232 22.7732 36.7082 0.00536516 -0.000264249 -0.0117795
1142 5 1 41.7994 26.8841 41.3381 -0.00125363 0.00177927 0.00484205
1067 4 1 40.414 33.2857 41.004 -0.000855437 0.00830589 0.000783602
599 3 1 41.5517 22.3516 36.8872 -0.00257532 -0.00722317 -0.00330418
1467 6 1 42.4526 24.1708 39.1097 -0.00349952 -0.00224033 -0.00366467
2308 9 4 41.8003 29.4299 45.199 0.000831784 -0.000582326 0.0017644
874 4 4 36.8413 28.0786 42.7131 -0.00521022 -0.00171319 -0.00307876
831 3 2 30.3538 21.1369 41.3098 -0.0179838 -0.00406692 -0.0040574
1799 7 1 48.3636 24.5621 40.5229 0.00419712 -0.00534758 0.00602017
905 4 3 51.5932 25.5751 39.211 -0.00152674 0.00199581 0.00639872
354 2 4 49.025 23.8238 42.4294 -0.00457729 0.000832323 -0.00131568
1777 7 1 46.1596 29.4919 44.7649 0.00192677 0.00109463 0.000253591
2624 10 1 44.7172 24.5254 40.4132 -0.00460875 -0.00338062 0.00122037
2459 9 1 53.2838 29.3623 40.5178 -0.00144652 -0.00237625 0.000872358
1226 5 1 45.6414 27.4639 37.6069 -0.00131909 -0.000833621 -0.00564808
2238 8 2 0.0505323 24.4485 48.4724 0.00732024 0.000272854 0.0106069
1389 5 2 1.31702 30.6695 44.5721 0.0222832 0.00981884 0.00344622
2216 8 2 52.77 23.3296 45.7138 0.00312738 0.000319036 0.0213078
1845 7 1 55.2592 23.3476 43.2298 0.0025439 0.000615423 -0.00420549
1289 5 1 1.33788 30.6765 39.7287 0.00403612 0.00156925 -1.31832e-06
724 3 4 59.0058 22.6548 44.2952 0 0 0
75 1 1 57.2254 23.9881 39.5645 0 0 0
704 3 4 59.4134 25.906 38.4946 0 0 0
674 3 1 57.4307 23.4621 43.3912 0 0 0
1978 8 1 56.4179 35.1092 45.0992 -0.00186652 -0.00105282 -0.00376091
649 3 1 56.4964 33.0704 36.5575 -0.00589158 0.00160483 -2.39531e-05
2185 8 1 1.41645 34.9692 41.3811 0 0 0
1875 7 1 0.806665 29.5599 43.0339 -0.00457098 -0.0030097 -0.00107181
1473 6 1 8.95142 32.3453 41.8985 0.00151473 -0.000939741 -0.00015765
2466 9 1 2.50619 32.4548 41.3019 -0.00387544 0.00192138 -0.00079293
1621 6 1 59.3965 32.28 45.0591 -0.00313479 -0.00535699 0.00717893
1376 5 2 14.0866 25.0944 36.7721 0.0253441 -0.00239881 -0.00211985
280 1 2 9.37882 39.1858 57.5251 -0.00211841 0.00698414 0.0290049
2368 9 3 11.6787 28.0054 41.8151 -0.00626052 -0.00723844 0.000997342
415 2 1 19.1459 30.2126 42.0515 0.00424625 -0.00232372 0.00458817
2236 8 2 12.1561 34.8304 54.6404 -0.00637601 -0.0048517 0.0206392
1772 7 1 19.3085 31.8182 40.9143 -0.00454689 0.00200907 -0.00126348
877 4 1 21.363 26.1799 40.3501 0.00319496 -0.0104988 0.00285567
875 4 1 13.4262 35.1636 37.3085 -0.00419739 0.0036745 -0.000416504
1006 4 4 17.6859 30.4428 38.9568 -0.00061729 -0.000826172 -0.00359442
795 3 2 14.5104 41.4901 34.6257 -0.00332221 0.0168593 -0.0142791
503 2 1 32.9162 36.3003 39.3125 0.00670642 0.0112864 0.00334385
335 2 1 28.5503 31.1046 41.1245 -0.00205885 -0.00447619 0.00499276
2761 10 2 28.1358 24.0355 46.0494 0.00234911 -0.0194755 0.0135136
1921 7 2 30.3966 34.829 42.313 0.00396485 -0.00151671 0.000925805
2021 8 1 25.4751 35.9061 41.5511 -0.00577893 -0.00106776 6.55465e-06
185 1 1 30.5549 37.2718 44.9714 -0.00266455 0.00406294 0.00327421
2057 8 4 28.6507 32.1289 44.183 -0.00312562 -0.000751529 0.00157913
1034 4 1 31.3018 31.2889 37.1624 -0.000476972 -0.00604881 -0.00335325
72 1 4 33.9117 33.0037 43.3142 -0.00559692 0.0024241 -0.00136447
1311 5 1 37.1316 35.5716 39.232 0.0029696 -0.00217177 -0.00982323
2779 10 2 44.8567 48.6831 47.2543 0.00175197 0.0271057 0.00662778
582 3 1 45.8659 33.1538 42.6305 0.00936632 0.00396515 -0.00142427
588 3 3 42.819 34.7068 46.1337 0.00521614 0.0089861 0.00499486
2545 10 1 38.7613 29.9378 41.2982 0.00201995 -0.00427489 0.00238409
378 2 4 41.8177 36.6292 42.1428 0.00524933 0.00299282 -0.000158151
1870 7 3 38.9534 30.5236 37.001 0.00210708 -7.32319e-05 -0.00464344
1418 6 4 38.1942 35.5646 44.0112 -0.00472069 0.0019307 0.00430194
968 4 1 38.1348 33.8634 41.798 -0.00626097 -0.00348014 0.000750608
372 2 3 46.9276 37.0734 38.17 0.00670673 0.00391631 -0.00587045
1278 5 1 42.857 37.5696 41.1472 0.000759517 0.00896349 -0.00430742
1331 5 1 50.9266 35.3697 38.1709 0.00781934 -0.000382531 -0.00597873
41 1 1 48.6738 31.3303 47.1593 0.000477664 -0.00273693 0.00572923
2091 8 1 51.7089 36.5526 39.4961 -0.0015456 -0.00217757 0.00210172
1855 7 1 48.2405 34.4596 39.6559 -0.0052103 0.00043669 -0.00403016
1063 4 1 52.2274 32.7406 39.8351 -0.00087369 -4.88427e-05 -0.0075045
1412 6 1 48.7284 34.8095 40.3652 2.73085e-05 -0.000814284 -0.00287983
1493 6 4 51.1799 33.8893 39.6953 0.00169667 0.0017689 -0.00169844
1682 6 2 43.4953 39.5591 46.535 -0.00604304 0.00418549 0.0038216
1227 5 1 47.3901 29.8048 40.7912 -0.00025655 -0.0055065 0.000227933
539 2 2 0.459146 45.8345 55.8092 0.0155558 0.0215293 0.0249515
657 3 1 57.5308 32.5258 37.3248 -0.00346108 -0.00409946 -0.000902276
100 1 1 0.074396 34.6774 46.0362 0.000949765 0.000997559 0.00352005
1725 7 1 53.9074 30.4096 42.2451 0.00414499 0.00315545 -0.00332172
392 2 1 2.35355 34.7971 39.6128 0.00491765 -0.000619775 -0.00230314
1122 4 2 1.78832 32.0865 44.1856 0.0051768 -0.0010277 0.0047781
448 2 1 57.0587 30.5013 40.8457 0 0 0
765 3 1 57.1039 30.7598 39.4036 0 0 0
1715 7 1 59.6588 35.6655 41.5287 0 0 0
344 2 1 58.1842 34.6087 39.5381 0 0 0
668 3 4 57.1884 36.0946 43.1908 0 0 0
2533 9 2 57.1615 32.7878 43.1117 0 0 0
1215 5 1 54.7083 29.7884 39.2203 -0.00205382 0.00760427 0.00293046
929 4 4 56.0551 35.1142 43.7684 0.00198882 -0.00247892 -0.00257706
1260 5 1 4.20496 43.2132 36.3165 -0.0121102 -0.00092362 0.000362308
76 1 1 5.25907 42.0571 43.1789 0.00274261 0.00107657 0.00211777
1583 6 1 6.18089 42.1508 39.0335 -0.00308573 0.00371068 -0.00105948
505 2 2 18.1409 40.8851 49.7098 0.0103242 -0.00176243 0.019312
1592 6 4 17.2907 39.5455 48.34 0.00517873 -0.00541933 0.00682667
85 1 1 12.3947 42.4817 37.5121 0.0046026 0.00277829 -0.0050389
1671 6 2 21.2195 53.8752 41.8479 -0.000947243 0.0209804 0.00619727
1261 5 1 15.7647 41.4951 43.3361 -0.00214235 -0.00527495 0.0103331
1680 6 2 18.2396 36.6703 51.104 0.00365158 -0.00493125 0.0131295
1570 6 4 14.8431 45.9533 39.7426 -0.00468787 0.00280021 0.00205194
1709 7 4 19.0746 47.9118 39.2054 -0.000617869 0.00630671 0.000725788
2340 9 1 17.3653 41.1949 42.8369 5.66641e-05 0.000268711 0.00244231
2458 9 1 16.0823 40.1363 44.3242 -0.00505567 -0.00109407 0.000382555
956 4 1 19.6176 40.2499 39.9291 0.00355756 -0.00418518 -0.00145119
1485 6 1 17.7897 44.8981 41.8786 -0.00553432 0.000809234 0.00257821
1244 5 4 21.1918 43.3262 42.4105 -0.00245994 -9.45455e-05 0.000830762
1612 6 1 19.8532 40.9876 46.6612 -0.00242615 -0.00434235 0.00729297
399 2 1 29.9381 38.9208 41.6553 0.00907948 -0.00101653 -0.0016341
1482 6 4 24.6916 48.1757 42.7338 -0.000550356 0.0103727 0.000933027
1151 5 1 28.412 45.5877 41.0621 -0.000983919 0.00379318 5.83286e-05
1739 7 1 27.9171 40.1676 43.3989 0.00226569 0.00233086 -0.00179212
1840 7 4 38.5818 45.854 36.6188 0.00650638 0.00604154 -0.00438386
1504 6 4 32.0349 45.1759 40.7528 -0.000952249 0.000413276 0.000418542
888 4 1 32.653 41.9791 43.7172 -0.00288418 -0.00120089 0.00163974
1383 5 2 24.0563 43.2088 44.0828 -0.0165147 -0.000704088 0.00363027
293 2 1 39.1172 41.8952 38.4051 0.00447457 9.43865e-05 -0.00780274
2753 10 4 33.8536 43.9245 40.2309 0.00163885 0.00168412 -0.00658145
2538 9 2 44.13 41.2419 58.8629 0.00225776 0.00359431 0.0319204
2525 9 2 32.1392 38.2013 41.4682 -0.0245918 -0.00287992 0.00776749
2199 8 2 39.4291 44.0304 36.6242 -0.00909093 0.00569779 -0.0101056
1345 5 1 51.1351 41.3812 44.5219 -0.0013736 0.00140619 -0.000307713
1249 5 1 51.5038 42.6657 39.6811 0.0012097 -0.000627541 -0.0018625
655 3 1 52.7716 39.3177 41.2061 -0.00197147 0.0009513 -0.00444256
780 3 2 52.3967 41.5066 43.1666 0.00692624 -0.00510404 -0.00590264
1381 5 2 3.13948 39.0574 37.1192 0.0130911 0.00348971 -0.0093828
418 2 1 56.0397 44.1911 38.6451 -0.00033103 -0.00208279 -0.00613602
1516 6 1 59.0043 38.6099 39.7297 0 0 0
1343 5 4 56.8083 40.8334 40.2925 0.00450643 0.000451351 0.00176456
2792 10 2 1.28867 48.8394 35.3965 -0.00794646 -0.0143187 -0.0111064
964 4 4 0.511772 47.1807 38.9016 0 0 0
443 2 1 0.491441 46.5048 43.0251 0 0 0
1232 5 4 1.77264 49.3338 44.6478 0 0 0
1204 5 1 0.18258 51.1464 39.8858 0 0 0
1908 7 2 1.51441 47.8743 43.3947 0 0 0
522 2 2 10.5074 48.5219 45.6996 0.00902371 -0.0074031 0.0245022
827 3 2 7.3401 40.6856 41.2456 0.0257222 -0.0151653 -0.0089486
2645 10 1 14.7506 55.6635 39.3964 0.000948544 0.0138713 0.00251741
2771 10 2 21.0746 58.2245 54.0432 0.0133626 0.0173335 0.0233495
1395 5 2 14.1523 39.8206 49.1762 -0.00145757 -0.0198351 0.0162129
836 3 2 3.9262 53.8139 44.2838 -0.0151409 -0.00212223 -0.00045384
375 2 1 15.3175 52.7422 41.7228 -0.0017646 0.0016005 0.00409462
127 1 4 12.5614 49.3663 43.2691 -0.00759418 -0.00243302 -0.00126109
2261 9 1 18.9356 48.3564 45.0289 -0.000137872 -0.00524525 0.00651823
632 3 3 16.0623 49.291 41.2197 -0.00734252 -0.00401388 -0.00148653
2765 10 2 19.8016 48.7575 50.1004 -0.00994205 -0.00646143 0.0218218
1265 5 1 19.4737 52.9736 39.2385 -0.0110747 0.00313933 0.00266998
2319 9 1 27.3683 50.5358 39.4523 6.78643e-05 0.00138486 0.00183722
363 2 3 25.5869 48.7055 41.7192 -0.00140633 0.00119876 -0.000294863
925 4 1 25.1375 46.1281 37.0913 -0.00316441 0.000465604 -0.00224778
930 4 1 24.0218 46.2832 43.3133 -0.00501928 -0.000294136 0.00267003
2226 8 2 25.0497 54.9239 46.2319 -0.0221651 0.0131612 0.00678328
2676 10 4 28.8196 44.4132 39.4282 -0.00247103 -0.00297262 -0.00339968
1064 4 1 30.8177 46.9885 35.6724 -0.00144795 -0.00500812 -0.00452621
1422 6 1 30.7566 52.8503 36.0316 -0.000999555 0.000844987 -0.00790795
295 2 1 31.0532 44.492 39.6711 -0.00410713 -0.00320704 -0.00490639
1314 5 1 36.0187 49.9067 39.7318 0.00500187 -0.00330431 -0.00374442
217 1 1 35.5299 44.7529 44.5565 0.000239754 -0.00211577 -0.000861642
1690 6 2 39.8544 53.0876 49.7306 -0.000615884 0.00535413 0.0217403
2409 9 1 45.2594 47.9296 42.9046 0.0036679 0.00316852 0.00308638
1974 7 2 34.3534 56.0781 32.3081 -0.00829179 0.018455 -0.011006
160 1 4 41.2875 48.3675 44.7114 -0.00372647 0.00193222 0.00128826
1714 7 1 42.5832 42.0404 40.2311 0.00438817 -0.00838827 -0.000911924
419 2 1 46.4656 48.4363 39.7717 0.0052518 -0.00679322 -0.00197781
56 1 1 37.6657 47.0863 44.5986 -0.000597464 -0.00685118 0.000900846
1846 7 1 51.0492 43.8522 44.2086 0.00301942 -0.00220693 0.00330676
1180 5 4 48.4801 49.0014 42.9474 -0.00302474 0.00217056 0.000690529
2658 10 1 45.2336 48.8711 41.9663 -0.00285557 -0.0014476 -0.00101056
1518 6 1 47.9151 46.041 40.2527 -0.000136953 -0.00440784 -0.00402578
2523 9 2 35.2855 44.6771 51.9963 -0.0223937 -0.00469986 0.0185796
1078 4 2 44.7702 56.427 40.8249 -0.0122323 0.0147916 0.0010455
2162 8 1 49.5042 42.8437 35.4673 0.00725126 -0.0112038 -0.0089608
2816 10 2 59.5833 39.2592 50.6242 0.00260874 -0.0118432 0.0164076
2076 8 1 52.9339 48.24 40.9905 -0.00338087 -0.00024749 0.00498197
1241 5 1 58.5947 47.0774 40.4548 0.00363082 0.00165563 0.00502919
1302 5 1 56.1475 46.5131 39.3943 0.00141822 -0.00169961 -0.00726346
1187 5 3 0.296993 46.5389 44.1594 0.00291073 -0.00417359 0.000572386
804 3 2 44.4735 54.3994 40.5419 -0.0197906 0.0044124 -0.0074066
2793 10 2 56.0573 48.9029 40.3719 -0.00719153 0.0173485 -0.0135189
226 1 2 1.12038 58.0244 38.2396 0 0 0
583 3 1 0.505363 56.0555 41.4608 0 0 0
1137 5 1 0.145135 54.6386 43.7489 0 0 0
67 1 1 11.3092 59.6914 40.8046 -0.00274143 0.00809243 0.00519052
205 1 4 9.21912 58.7243 38.9115 -0.00127911 -0.00121974 -0.000776523
1813 7 1 9.07011 58.8927 41.3828 -0.000946711 0.00315309 0.000889344
2384 9 1 10.7503 57.8387 42.6515 0.000408706 0.000376384 0.0020458
1326 5 1 11.0461 57.0555 43.5958 0.00329179 0.00424128 0.00150232
753 3 1 8.06395 54.0129 38.4385 -0.00781232 0.0120213 0.000499833
2434 9 3 21.7322 1.53544 46.0507 0.00140084 0.00539815 0.010931
1549 6 1 15.8644 50.9391 39.2678 -0.001863 -0.00347432 0.00122927
2616 10 1 19.2498 57.2073 40.0153 -0.000286659 0.00389858 0.0014989
2293 9 3 17.4354 59.0905 43.2516 0.00208675 -0.000434235 0.00369977
2307 9 1 14.8563 58.8005 40.153 -0.00501061 0.00364991 -0.00200378
421 2 1 14.8796 1.08392 42.7876 -0.0037763 0.00272292 0.000144065
952 4 1 25.8013 55.3211 44.7423 0.00499689 0.00113059 0.0100083
1132 5 1 19.2018 59.4905 38.5642 -0.00720826 -0.00096483 0.00096677
1297 5 3 26.9693 56.6315 43.1918 0.00265384 0.00742283 0.00187732
2098 8 1 25.4465 56.6533 41.2482 0.000633323 -0.00204918 0.00238394
333 2 1 29.5364 57.951 39.1283 -0.00478352 0.00298864 0.0022799
2297 9 1 33.092 55.7209 36.5357 -0.00195539 -0.0040026 -0.00222815
1741 7 1 30.0046 52.7047 44.78 -0.00620037 -0.00365038 0.00208534
1491 6 3 35.3197 55.9952 42.1791 -0.00317879 -0.00361926 0.00141289
1183 5 1 30.9062 59.1706 42.3022 -1.10717e-06 0.00575973 -0.00497734
2153 8 1 40.5503 3.21679 40.2398 0.00545373 0.0100758 -0.00457863
695 3 1 37.0123 53.9138 43.4575 -0.00251627 -0.00503545 -0.000299037
2395 9 1 41.8611 48.3714 44.6503 -0.00231071 -0.00887487 0.00101367
2630 10 1 44.5177 52.6236 43.6778 0.00131678 -0.00170836 0.00210911
456 2 1 40.0925 54.7699 41.5763 0.000107241 0.00248239 -0.00367077
444 2 4 50.7771 57.4499 42.5623 0.000439369 0.00725952 0.00574058
1462 6 4 52.7802 59.4209 40.7834 -0.00351123 0.00358532 -0.000996947
902 4 1 47.7503 53.108 45.2959 -0.00296569 0.000866757 0.00265586
1880 7 1 47.4249 54.114 44.0294 -0.00121066 -0.004051 0.000402496
764 3 3 47.6897 2.38315 42.2421 -0.000525208 0.00846966 -0.000598192
2276 9 1 45.4423 54.0572 37.8015 -0.00155962 -0.000704942 -0.00240339
255 1 2 0.203651 59.463 42.026 -0.0185121 0.018408 0.0096298
816 3 2 52.6206 54.327 37.4244 -0.00683301 0.00512248 -0.00224559
323 2 1 58.1338 54.166 43.8403 -0.00290589 -0.00460966 0.000944053
1961 7 2 47.7732 1.62375 39.1137 -0.0120517 0.0193036 -0.00696895
470 2 1 54.6101 56.6193 38.6143 0.00052861 -0.00740299 0.00169772
2254 8 2 57.7793 57.1031 43.2616 0 0 0
747 3 1 57.508 59.5107 38.8005 0 0 0
2787 10 2 58.0331 53.2475 32.5998 0.00124682 -0.010893 -0.0231724
574 3 1 1.64818 2.6524 50.6654 0 0 0
809 3 2 0.361214 6.06129 46.9851 0 0 0
1926 7 2 2.70631 10.0311 48.9579 -0.00453064 0.0127455 -0.00508635
2819 10 2 5.93673 5.35201 54.0187 -0.00709998 -0.00686729 -0.0159739
1247 5 1 11.7115 6.37857 54.0592 -0.003051 0.00157901 0.011342
2628 10 3 13.1973 3.824 53.9195 -0.00120318 0.00409488 0.0125227
173 1 1 12.8429 4.30438 51.9608 0.000862663 0.000290862 0.00105906
844 3 2 31.4518 59.3355 47.0245 0.0461926 -0.001769 2.32831e-05
1512 6 1 13.6212 3.6766 54.6723 0.00674146 -0.00278432 0.00601308
414 2 1 15.6792 58.086 45.978 0.00348504 -0.00941543 -0.00398954
2346 9 3 11.288 2.87818 48.0507 -0.00020768 0.00177217 -0.00662802
2527 9 2 11.1734 3.81922 54.3655 -0.0148401 0.00711962 0.00728295
936 4 3 23.5863 3.31224 48.1252 -0.00385663 -0.00199609 0.00373598
1498 6 1 25.5331 58.6835 46.3091 0.0048556 -0.0041228 -0.00287135
1198 5 1 25.2409 2.41397 54.5054 -0.00275765 0.0027101 0.0063744
1119 4 2 17.9464 52.0846 36.1652 -0.0166928 -0.0171234 -0.0211469
291 2 1 38.6723 4.16657 51.5138 0.00493824 -0.00654236 0.00760171
1970 7 2 31.6247 59.3996 57.4763 -0.00664722 -0.00959683 0.0184995
1370 5 2 23.6332 58.5638 54.2679 -0.0166093 -0.0174477 0.0130591
733 3 3 36.8936 2.32484 52.8052 -0.000336031 -0.00138009 0.00145922
884 4 4 34.4278 4.50742 49.8297 0.000310868 0.00563515 0.000993016
338 2 1 35.3805 7.8904 43.7466 -0.00138436 0.00320611 -0.00906299
1563 6 1 35.6805 1.65286 46.8815 0.00022628 -0.00702665 -0.0078074
998 4 1 33.0511 4.24763 49.2893 0.00400592 0.00426995 -0.00390482
2501 9 2 43.1751 12.8287 5.94636 0.00230241 0.0122161 0.0282007
2 1 1 38.6306 57.3532 49.0285 0.000385009 -0.00590782 0.00434188
2007 8 1 41.3345 3.03245 44.4932 0.00285036 -0.00183628 -0.0031435
211 1 1 42.2371 1.49683 47.0451 0.00105497 -0.00579865 -0.000534156
1852 7 4 40.8203 3.73001 51.5066 0.00218083 0.0027112 0.000502447
2695 10 1 44.8069 1.44698 50.4294 0.00273279 -0.00482072 -0.00220653
656 3 1 48.6362 3.38938 46.7671 0.00395001 0.00258987 0.00011569
778 3 3 45.7574 2.57901 50.6029 -0.000301964 -0.001142 0.00430919
447 2 1 49.2772 3.65264 47.7556 -0.00347938 0.00313834 -0.00548552
1019 4 1 53.6753 2.24205 48.5448 0.00209668 0.00506827 -0.00218597
68 1 3 47.3202 3.82732 51.4636 0.000138338 -0.00606517 0.00116925
2225 8 2 48.5362 1.07496 46.3495 0.00400974 -0.00878406 -0.010637
321 2 4 56.0865 3.20037 49.1822 -0.000419183 0.00429269 -0.00146333
2227 8 2 51.4826 58.8313 46.1527 -0.0173792 -0.00894929 0.0103328
2413 9 1 53.0955 2.80186 48.1916 -0.00625783 0.00374958 -0.00147627
180 1 1 57.867 1.27372 46.437 0.00318975 -0.00492643 -0.00376009
2072 8 1 54.9589 1.10321 49.3326 0.00182885 -0.00599764 -0.00270738
2240 8 2 57.0385 6.22163 48.9251 0 0 0
1877 7 1 57.8266 2.7139 49.6769 0 0 0
1414 6 1 59.0028 3.97085 48.5319 0 0 0
1794 7 1 54.2396 7.08367 53.4081 0.000772999 7.16245e-05 -0.00130346
351 2 1 55.1746 4.34091 50.2765 -0.000551094 0.000797303 0.00665757
1378 5 2 51.5018 6.7222 48.5726 0.000232653 0.0139969 0.00459329
97 1 1 54.9889 7.59851 50.006 0.00548701 -0.00195806 0.00282409
592 3 4 1.25794 12.1091 48.9928 0 0 0
768 3 4 0.598186 14.8812 48.8194 0 0 0
1933 7 2 54.9337 15.0711 13.0412 -0.0180119 -0.00719504 0.00516752
1388 5 2 21.3747 19.0696 55.0278 0.0269346 0.0180121 0.016753
1724 7 1 12.4778 8.52854 54.616 0.00455697 -0.00363302 0.00462364
1323 5 1 9.64113 12.4957 47.8287 -0.00271431 0.0014355 -0.00315434
1083 4 2 12.147 12.2688 48.6703 -0.0010776 -0.00225906 -0.00386333
679 3 1 16.8902 16.4335 47.6766 0.00250007 0.006531 -0.00135492
202 1 1 17.3087 14.5083 46.8889 -0.00413236 0.000926645 0.00130717
2549 10 1 26.764 14.5401 44.6848 0.00814883 -0.000390711 -0.00370186
2316 9 4 24.3753 10.8861 48.2703 -0.000375339 0.00288329 0.00254034
2035 8 4 22.5445 8.37466 46.1812 -0.00533449 -0.00458332 -0.000627937
1911 7 1 22.6414 9.10802 52.071 -0.00447472 0.00258968 -0.000822518
1146 5 1 33.952 6.84591 47.8278 0.00468517 -0.0026089 -0.00284753
1841 7 4 38.0035 16.3765 46.0139 0.00339478 0.00464506 -0.00577194
1751 7 3 32.1949 13.0322 46.2864 0.000592474 -0.00116206 -0.00498381
1246 5 4 29.2448 5.82945 48.2904 -0.00182153 -0.00800252 -0.0038458
2286 9 4 38.686 13.8293 53.1181 0.00460435 -0.00228843 0.00510212
2402 9 1 32.5783 10.9827 44.9736 0.00245806 0.00190872 -0.00874654
1657 6 2 25.9789 14.7957 46.7248 -0.0198117 0.0072549 -0.00820111
238 1 2 41.6825 6.71775 6.41352 -0.000157483 -0.0103302 0.0313024
834 3 2 41.0474 14.991 52.2561 0.00591565 0.00150628 0.00931157
598 3 1 36.0567 12.5958 49.5604 -0.00637632 0.00339194 0.00161574
2188 8 3 43.4284 9.92674 50.4106 -0.00252055 -0.000116632 -0.000538225
1195 5 1 38.5598 14.4549 49.6102 -0.00202768 -0.00107949 0.0011066
1421 6 1 49.8689 9.09333 50.0173 0.000562632 0.00204051 -0.00196797
405 2 1 51.1474 12.1251 50.909 -0.000627104 -0.0029295 0.00253992
262 1 2 57.973 12.2535 35.5126 0.00517132 0.00165938 -0.0249037
381 2 1 55.7553 11.6746 49.6471 -0.00289917 -0.00312845 -0.00153266
2582 10 1 54.2076 14.814 49.7414 -0.00354681 0.000179405 -0.000924619
315 2 1 57.8307 12.0494 50.6332 0 0 0
181 1 1 56.3461 14.6078 44.7664 0.0039913 0.00351508 -0.00720207
706 3 1 52.039 14.202 45.5293 -0.00634089 0.0023452 0.00122613
1341 5 4 1.66693 17.0094 45.209 0 0 0
66 1 1 2.48048 20.9683 45.7988 0 0 0
2729 10 3 0.537515 21.377 48.8774 0 0 0
2757 10 1 2.40871 22.2559 49.8326 0 0 0
1767 7 1 -0.0378886 17.1741 48.6003 -0.0148917 -0.00721324 0.00263737
1634 6 2 16.8648 32.5679 46.8345 0.00505361 0.0254032 0.00259416
612 3 1 12.4222 18.0101 46.6339 0.00261401 0.00210737 0.0013366
2462 9 1 12.5775 13.1236 50.8973 -6.30783e-05 -0.00783083 0.00173706
1936 7 2 28.1374 12.3673 47.868 0.0321394 -0.00914342 -0.000448242
741 3 1 23.2825 13.699 50.2799 0.00265172 -0.0117439 0.00657695
710 3 1 19.145 22.3329 47.5181 -0.0024964 0.00965647 0.000855848
149 1 4 24.4098 16.2063 49.8558 0.00547978 -0.00596257 0.000759737
1252 5 1 20.5092 20.1225 52.8608 -0.00216422 0.0025586 0.00626574
1055 4 1 21.0673 21.467 43.7393 -0.00215541 0.00260112 -0.00330014
1494 6 1 22.2825 23.8261 45.7381 -0.00134092 0.00355633 0.000967052
1979 8 1 25.364 19.8896 50.7936 0.00111952 0.00398844 0.00316653
854 4 4 28.9158 26.2631 45.9023 0.00297786 0.00870746 -0.000143619
2393 9 1 21.5006 21.1374 50.361 -0.00780356 0.00219548 0.00319648
221 1 1 27.5012 23.5471 51.2527 -0.00288582 0.00349001 0.00578025
823 3 2 22.212 12.2005 44.7944 -0.00563534 -0.00763825 -0.0127552
1885 7 4 33.9648 20.3096 46.724 0.0015459 0.00398717 0.00143728
123 1 1 36.9041 20.829 45.9043 0.000267529 8.99219e-05 -0.000191334
1042 4 1 30.3584 16.6691 53.3329 -0.00680387 -0.00185808 0.00337089
738 3 1 36.4946 19.1049 54.3135 0.0112283 -0.00401006 0.00700179
1425 6 3 33.3606 20.4683 49.598 -0.00181677 -0.00277607 0.00229042
2109 8 1 33.62 21.2122 50.8274 -0.00429653 0.00436848 -0.00186619
781 3 1 40.5915 17.8252 49.1777 -0.00441604 0.00447172 0.00291206
1559 6 4 45.6433 17.8142 51.4553 0.00928987 0.000791271 0.00545204
2247 8 2 39.1638 24.5761 39.5264 0.00251982 0.00532489 -0.0118527
299 2 4 39.6937 19.0452 46.0449 -9.77068e-05 0.000313619 -0.00449737
2747 10 1 43.4699 21.5419 45.9506 -0.00693915 0.00594687 0.00115866
206 1 1 46.2847 22.8397 49.1525 -0.00164067 0.00119971 0.00552197
1103 4 2 42.6996 22.7692 42.6468 -0.0128893 0.0102134 -0.0120018
81 1 3 57.4164 22.2983 51.4601 -0.00494129 0.00888783 0.00499839
618 3 1 55.3028 18.0026 46.0793 0.00173476 -0.0030994 -0.000308295
1761 7 1 55.7422 20.0403 51.9073 -0.00141509 0.00388784 -0.000862571
1684 6 2 55.3724 24.9504 50.5669 0.00771013 0.00188505 0.00817826
548 2 2 0.271718 16.7824 38.3718 0.00158205 -0.00227826 -0.0153361
258 1 2 58.5726 10.8841 46.5327 0.00256273 -0.0151632 -0.0111003
1613 6 1 2.24153 24.3723 47.6531 0 0 0
646 3 4 1.04342 26.9623 47.5199 0 0 0
312 2 4 0.729703 24.2545 47.2596 0 0 0
714 3 1 0.900365 27.4001 50.727 0 0 0
697 3 1 0.808402 27.243 47.8342 0 0 0
633 3 1 7.36191 26.517 50.6131 0.0135286 -0.00701192 -0.00434286
2180 8 1 1.96131 25.1128 44.7128 -0.0013721 -0.00535573 -0.00584162
494 2 1 9.73045 30.3086 50.2218 -0.0067618 0.00591746 0.000945092
1404 5 2 16.0787 31.5491 43.7377 0.0127241 0.007707 -0.0140094
1527 6 1 20.4649 31.4509 47.443 0.00985926 0.00843334 0.00212159
1442 6 1 13.0514 26.3595 50.7628 -0.00476784 -0.00214506 -0.000578961
2510 9 2 26.68 30.444 38.8989 0.00544141 0.0107167 -0.0212943
1681 6 2 30.9099 27.9308 57.4091 0.00910325 0.00364945 0.0215864
1611 6 1 26.3518 25.07 49.2915 -0.00358318 0.0037717 0.004808
677 3 1 21.3719 32.4447 51.7377 -0.00248929 0.00524686 0.00953566
2095 8 1 23.6014 23.6732 49.611 0.00041187 -0.00462718 0.00320232
707 3 1 26.1049 30.5596 52.1846 0.00297779 0.00608847 0.00217826
2108 8 3 27.3663 23.169 44.6194 0.000966422 0.000403038 -0.00730045
2475 9 1 27.0776 28.0819 51.8308 -0.00357729 -0.000594818 0.0019532
468 2 1 32.6211 25.6484 48.6906 -0.000134311 0.00521219 0.00135117
101 1 1 30.9476 29.854 48.6598 -0.000773395 0.00507064 -0.000256418
686 3 1 34.9446 25.4577 48.1473 0.00581311 -0.0063031 -0.00330961
1413 6 1 33.9076 27.0524 45.6666 -0.00213858 -0.00425758 0.000561216
735 3 4 36.0759 17.9382 53.2372 0.00603996 -0.0124779 0.00332697
1372 5 2 40.999 20.9728 47.9085 0.0140011 -0.0150952 -0.00829712
1912 7 1 41.7938 26.7724 46.9028 -0.00400144 0.00582987 0.000801615
266 1 2 51.9226 25.8074 54.818 0.000987518 -0.0194491 -0.0021442
1817 7 3 45.3508 30.2802 43.4505 0.00193726 0.000729135 -0.00386404
2699 10 1 36.4218 28.8833 45.0109 -0.00526422 0.00244614 -0.000757313
2711 10 1 40.5566 26.6849 48.5256 0.00253261 -0.00289697 -0.00183443
1242 5 1 43.5078 32.4804 45.1756 -0.00188061 0.00656262 -0.00354176
984 4 4 38.3778 27.688 50.6596 -0.00366311 -0.00431346 0.00246908
2570 10 1 42.8424 23.3864 51.7935 -0.00237171 -0.00715605 0.000407697
849 4 1 43.5126 23.741 49.829 -0.000782781 -0.00199078 -0.00406565
953 4 1 50.6813 30.7788 50.6504 -4.97328e-05 0.00412964 0.00635224
1766 7 4 46.0248 27.6387 44.6466 -0.00283265 0.00145629 -0.00212306
49 1 1 46.5808 23.8104 47.9505 4.09479e-05 -0.00371596 0.00110572
731 3 1 51.4371 25.887 49.8618 -0.00318083 -0.00353162 -0.000517238
1551 6 1 52.299 25.0486 48.1692 0.000214303 0.00429127 0.000494563
954 4 1 43.7995 27.513 49.2897 -0.00730236 -0.0028412 -0.00491198
596 3 1 55.5606 23.1217 47.5783 -0.00260382 -0.000507229 -0.0045389
1301 5 1 54.5157 30.8614 51.211 0.0054361 0.00158942 -0.00223285
1757 7 1 54.5602 22.9363 48.4689 -0.000344253 0.000664356 -0.000541263
777 3 4 54.5603 26.243 50.2251 -0.00366513 0.00443748 0.00104359
2481 9 2 58.0349 28.732 52.4725 0 0 0
402 2 1 55.6225 26.1803 48.4287 -0.0048146 -0.00143406 0.00272153
1155 5 1 52.6641 27.8083 46.7159 -0.00221982 -0.000152745 -0.00105312
1949 7 2 58.0626 25.4325 47.0611 0.00146942 -0.00782572 -0.000182306
2201 8 2 5.88432 25.9315 49.4364 -0.0111192 0.0230261 -0.0190495
352 2 1 6.94168 31.4974 51.5961 0.00245252 -0.00369099 0.0135749
973 4 4 1.74702 35.674 49.0562 0 0 0
1546 6 1 6.56758 35.8074 46.5567 -0.00423161 -0.00153545 0.00321622
784 3 1 17.9911 40.0913 48.1296 0.00875145 0.00990154 -0.000587001
2054 8 1 13.9304 31.7129 49.7486 0.00990028 -0.00568887 0.00451192
1661 6 2 11.1114 43.3208 36.3015 0.00401999 0.0166887 -0.0307889
1679 6 2 4.3414 24.1377 47.0333 0.0246056 -0.0260281 -0.0414351
1939 7 2 19.264 23.0575 48.46 0.0112119 -0.0233102 -0.00401132
342 2 4 17.8173 34.0828 45.104 -0.00339377 0.00062283 0.000114637
1878 7 1 17.3762 31.6036 49.7709 0.000853306 -0.00444744 0.00613467
967 4 1 16.9245 25.0132 51.4661 -0.00221484 -0.0109443 0.00669625
1165 5 3 19.8449 28.1244 50.958 0.00608835 -0.0062828 0.00293488
2170 8 1 16.5961 33.673 51.9659 0.000443766 0.001286 0.00354991
711 3 3 22.9766 37.5925 52.266 0.00219864 0.00215781 0.000347173
595 3 1 13.6447 31.375 47.5892 -0.00551048 -0.005081 0.000167536
2460 9 4 15.7768 30.1039 47.0883 0.001431 -0.00368714 -0.00745462
1904 7 1 23.3781 38.4668 47.0076 5.72883e-05 0.0058979 0.00204797
2051 8 1 26.1774 33.4696 46.0786 0.000311234 0.00124541 -0.00303099
1000 4 1 22.4517 28.5126 48.6158 -0.000412581 -0.00580883 0.00181703
314 2 1 28.8584 38.4672 48.6518 -0.00164397 0.0065273 0.000837183
1254 5 4 28.6491 34.5659 48.5411 -0.00147271 0.00378799 -0.00342247
613 3 1 28.2461 29.6476 53.5512 0.0100572 -0.00864745 0.00304708
21 1 1 28.0907 35.5985 43.2355 0.0112444 -0.00248972 -0.00840028
1573 6 1 32.4045 37.9551 52.5814 -0.000173404 0.00592505 0.00235619
1157 5 1 28.7349 30.4899 49.1993 -0.0026926 -0.00448009 -0.00140685
2796 10 2 26.5204 33.0624 52.9529 -0.00753242 0.00151037 0.00233882
2571 10 1 31.5091 35.1319 45.2139 -0.00404751 0.00178227 -0.00690377
1643 6 2 36.7799 33.446 1.47279 -0.0100178 -0.00316043 0.0235433
631 3 1 36.0443 37.2695 52.0457 -0.00314435 0.00354941 0.00221195
462 2 1 48.1509 35.7487 44.7146 0.00776546 0.00452571 -0.0054748
2781 10 2 31.6803 38.5037 38.0183 -0.019412 0.0071929 -0.0182404
2543 10 1 51.3617 30.5897 52.1482 -0.000377633 -0.000995776 -0.00136762
917 4 1 50.6173 35.0082 53.0478 -0.00264262 0.00626947 0.00111872
1021 4 1 43.757 32.9631 48.9972 -0.00418457 -4.95807e-05 0.00330559
2730 10 4 51.3833 34.6612 53.0559 0.00314777 -0.00138656 -0.00400178
1989 8 3 49.6176 37.9698 48.5261 -0.00338152 0.00115647 0.00383551
937 4 1 51.9876 33.3048 48.4685 -0.00331719 -0.00121283 0.00244894
1673 6 2 48.6081 27.4827 44.6886 -0.00607336 -0.00813212 -0.00396128
1225 5 1 55.1247 34.2803 47.1574 0.00246054 0.00123321 0.000912085
857 4 1 58.0395 38.5654 49.8513 0.00177666 0.00287266 0.000272528
1218 5 3 55.3051 35.9411 48.6874 -0.000208994 -0.0043051 -0.00282751
1133 5 1 59.5023 33.0454 51.4855 0 0 0
564 2 2 55.7324 33.2123 48.8277 0.00947597 -0.00902823 -0.00616946
410 2 1 3.1885 41.7471 48.2909 0.00338527 -0.00691734 0.00206829
1087 4 2 0.741058 38.4752 46.2555 0 0 0
662 3 1 0.767883 40.7174 46.9794 0 0 0
1361 5 2 0.585442 44.7153 47.7789 0 0 0
542 2 2 17.7816 38.2186 2.83468 0.0100221 -0.00259779 0.0350615
2101 8 4 10.5554 32.9908 50.3533 0.00139897 -0.0101299 0.000204151
1240 5 3 12.2812 47.2298 48.0282 -0.00320214 0.00498582 -0.00849982
908 4 1 17.6599 40.3151 49.5062 -0.000709768 0.0046948 0.00593202
98 1 1 17.4531 39.2 43.7669 0.00111219 0.00191638 -0.00426352
681 3 1 18.9763 42.6675 50.7281 0.00584832 -0.00172105 0.00382379
144 1 1 25.5239 44.6076 50.8152 0.00836313 0.00422948 0.000352336
2519 9 2 29.1196 55.0701 9.937 0.00241499 0.0232323 0.0400832
196 1 1 25.5848 45.8131 47.2057 -0.00739822 0.00400918 0.00238953
1505 6 1 36.4352 43.3409 52.0686 0.0131406 0.00805825 0.00127409
1728 7 1 30.9513 38.3532 45.9888 0.0144758 0.000627621 -0.00299149
705 3 1 21.612 39.3623 50.5309 -0.00376638 -0.000198909 0.00199638
1011 4 1 25.1489 44.4211 46.903 -6.75314e-05 5.32053e-05 -0.00271408
608 3 1 24.5981 39.6857 45.1349 -0.00266284 -0.00263951 -0.00322911
192 1 4 24.6098 40.6301 49.3655 -0.00368046 -0.000492094 -0.00123273
1296 5 1 23.0643 41.6286 47.8111 -0.000567177 -0.00547555 -0.00325983
289 2 1 28.5036 46.5201 46.1961 0.0038681 0.00367571 -0.00813679
1037 4 3 40.4674 40.0358 54.7546 0.0109188 0.00293893 0.0103758
1899 7 1 32.6666 40.5523 50.5421 -0.00312524 0.00241521 0.00563828
1288 5 4 31.4298 37.6845 47.8858 -0.00297564 -0.000590899 -0.00121389
2605 10 1 35.8118 41.4383 51.2712 0.00141534 -0.00209333 0.0021141
1129 5 3 35.0018 41.1922 46.3961 -0.00127722 -0.00601422 0.000733207
1409 5 2 38.3658 44.5587 36.6336 0.00331837 0.0135229 -0.0215214
2354 9 1 30.7136 49.1825 46.3963 0.00141309 0.009997 -0.00677806
1145 5 4 36.9311 36.9481 50.6866 0.0108316 -0.00403625 -0.0024059
1230 5 1 30.0623 38.7528 50.2796 -0.00171893 -0.000145858 -0.00385283
275 1 2 36.8295 54.6894 52.468 -0.00408931 0.0246473 0.00401237
2412 9 3 41.49 40.4353 45.3974 -0.00235954 0.000654054 0.000391781
80 1 1 39.6295 46.4206 49.3665 -0.0013781 0.00603635 0.00192157
1555 6 1 38.2019 47.5072 44.8243 -0.00292547 0.00528094 -0.002547
1614 6 4 39.2579 43.5288 53.5412 -0.00123338 0.000793355 0.00301363
1824 7 1 37.247 39.4083 46.2788 -0.00407563 0.000468634 0.00030006
1455 6 1 51.8349 44.7044 50.9492 0.00252397 0.00217866 0.00394483
1214 5 1 45.7297 39.2995 50.0119 0.000210533 0.000144601 0.00550488
1924 7 2 47.7087 40.9476 49.0967 -0.00131192 -0.00302738 0.00594854
1954 7 2 41.2169 40.4923 2.81542 -0.0117759 -0.00395526 0.0257331
1478 6 3 47.5351 41.9886 47.2125 -0.00141795 -0.0046668 0.00423273
439 2 1 47.2818 46.664 46.8749 0.00028374 0.006174 0.00137584
1750 7 1 46.8606 44.4961 48.8351 -0.0022168 -0.00038547 0.00359976
2149 8 1 47.6719 44.4198 45.1448 -0.00317471 0.00558742 -0.00382787
1700 7 4 45.9805 42.8452 52.6264 -0.00238263 -0.0011366 0.000611492
1942 7 2 46.6513 39.3561 53.3218 -0.0114847 -0.0131739 0.00700509
227 1 2 55.3017 41.2495 49.6133 2.76604e-05 -0.00895474 -0.000519686
1304 5 1 53.8618 38.8142 49.9499 0.00175427 -0.00432412 -0.00328305
2044 8 1 56.2299 41.2888 49.8369 -0.00375904 0.00345316 -0.00258642
1848 7 3 58.9224 40.9575 48.9681 0 0 0
1351 5 2 59.9632 37.9589 47.3869 0 0 0
1734 7 1 54.302 40.598 53.156 0.00015115 -0.000968687 -0.000304915
309 2 1 57.6736 38.916 49.0018 -0.00201498 -0.000846468 -0.00345306
2439 9 1 56.2295 37.7136 47.5065 -0.00211432 0.000255937 -8.96857e-05
401 2 1 7.54671 51.7327 48.1924 -0.00680364 0.000656667 0.00402976
248 1 2 0.823263 48.3324 37.7814 -0.00829316 -0.0236307 -0.00577782
2052 8 1 6.21793 49.5397 52.4844 0.00997453 0.00480731 0.0039955
1633 6 2 14.3318 59.9293 51.1213 0.014564 0.0131192 0.000547648
189 1 1 13.6048 51.1112 50.1111 -0.00114705 0.00755689 0.000657125
1742 7 4 9.73585 47.7273 47.2017 0.00146823 0.000758478 0.000263035
2111 8 1 11.145 45.52 51.0893 -0.004525 -0.000507443 0.00425673
252 1 2 16.794 51.5216 41.6097 -0.00766591 0.00547446 -0.0186008
304 2 1 23.428 48.4578 49.4071 0.00435056 0.000733522 0.00691508
2627 10 1 20.2971 47.1615 48.3709 -0.000568715 0.00283212 -0.00238297
920 4 4 17.279 45.6479 53.1211 -0.000985679 0.000606632 0.00162273
29 1 1 18.7999 50.9628 48.606 -0.00158313 -0.00114186 -0.00418408
1259 5 1 26.4504 45.9496 52.865 0.00437719 -0.00410885 0.00465812
2470 9 3 23.9292 51.0731 54.5082 0.000879777 -0.000308555 0.00700986
1306 5 3 23.1208 45.6007 49.3817 -0.000999856 -0.00522171 -0.00292227
1826 7 3 31.1293 45.1076 42.2027 0.0035676 -0.00908068 -0.00619639
2806 10 2 32.7581 59.6139 42.4118 -0.00431558 0.0179141 -0.0180174
1639 6 2 37.5805 39.5747 57.9586 0.0069445 -0.0181228 0.0233196
1966 7 2 36.3229 54.8501 46.3642 0.0101465 0.016113 -0.000278092
1313 5 1 32.6998 41.9718 53.2144 -0.000499216 -0.0103053 0.00207171
2342 9 1 33.4919 48.0544 48.3287 -0.00487924 0.0013756 0.00215466
511 2 2 52.8672 2.6253 31.8618 0.0015368 -0.0176312 0.00895364
1423 6 1 42.184 47.4707 44.5818 5.48039e-05 0.000316536 -0.0023769
2601 10 1 40.6384 46.0814 44.225 -0.0020302 -0.00244576 -0.0031642
1820 7 1 40.4884 47.1085 45.5922 -0.00422033 -0.00155651 -0.00164896
119 1 1 37.4627 46.6028 48.2973 -0.00372615 -0.00591693 -0.001209
2203 8 2 40.8911 46.7746 0.55728 -0.0212925 -0.00886904 0.0194452
2014 8 1 50.1348 43.2044 50.1558 0.006267 -0.00620155 0.00555899
2552 10 1 51.3986 46.6955 47.1968 0.0015922 0.00538385 -0.000455084
292 2 1 51.685 46.9238 49.0451 -0.000707551 -0.00262957 0.00245642
2096 8 1 49.6668 47.1426 47.4896 -0.00828601 0.00642048 -0.00115475
2069 8 1 53.1077 44.0641 49.9651 0.00125302 -0.000629577 -0.00138991
11 1 1 47.6408 51.2341 45.0933 0.00097326 -0.00133663 -0.00519381
721 3 1 47.5705 53.1221 49.4974 -0.000535966 0.00276122 -0.00314604
805 3 2 43.6201 48.4426 36.6591 -0.00610771 -0.00474454 -0.0176444
1094 4 2 58.8529 49.9629 50.8151 0.00511794 -0.00515557 -0.00272419
1674 6 2 38.6147 53.665 48.6962 -0.0291681 0.00884172 -0.00226844
1342 5 3 52.539 51.0789 45.039 -0.00446238 -0.00395625 -0.000424926
2744 10 1 53.7428 48.2071 47.9136 0.00180665 -0.00150956 0.000782575
1220 5 1 57.0462 45.2165 45.8085 0 0 0
1270 5 1 59.3971 52.1385 45.3932 0 0 0
1234 5 1 59.05 49.7792 51.2411 0 0 0
859 4 1 2.44898 58.9148 50.178 -0.0047677 0.00335322 -0.00610605
1495 6 1 0.938724 59.2579 50.2322 0.000718712 0.00344524 0.00400048
1135 5 1 1.90092 54.8569 45.5984 0 0 0
53 1 1 6.70624 53.3548 47.1689 0.00718911 -0.00631756 0.00661196
890 4 1 10.573 57.5885 50.6879 -0.00137408 0.000554358 0.00107631
1328 5 3 12.3264 50.6488 44.637 0.00290906 -0.00389432 -0.00412706
188 1 1 21.8655 56.8456 49.3929 0.00285376 -0.00250301 -0.00070949
2092 8 4 17.4291 57.1664 47.9757 0.00198308 -0.00132811 -0.00303378
424 2 1 20.5813 59.6776 43.0738 -0.0036183 0.00379481 -0.00445699
2244 8 2 19.2846 4.45256 37.8615 0.00736942 0.0125664 -0.0175759
1525 6 1 26.6324 51.157 55.3843 -0.00185829 -0.00389216 0.00720146
2590 10 4 27.6174 57.5822 48.5606 0.00152907 0.00374353 0.00177789
1701 7 1 25.8249 56.0144 48.0478 -0.000362411 -0.00245957 0.00159974
451 2 3 23.3807 52.0415 49.0714 -0.00134626 -0.0026958 0.00174603
1470 6 4 29.4372 1.3966 49.2382 0.000157299 0.00666301 -0.00301535
2641 10 3 29.451 55.432 48.8369 0.00376115 -0.00192142 -0.00696898
939 4 1 33.2379 0.443816 52.6515 -0.00074513 0.00698111 0.00142748
782 3 1 29.4772 55.5818 46.4255 -0.00213918 -0.00170025 -0.00547076
1858 7 1 41.106 1.67888 47.6121 -0.0026807 0.00427009 0.0040093
479 2 1 40.9864 56.043 50.0131 -0.00241308 -0.00632666 0.000364064
950 4 4 43.3139 55.3363 52.6872 0.00651678 0.0022458 0.00218001
2640 10 1 42.8166 54.5943 45.1048 0.00115085 -0.00176926 -0.00225034
2642 10 4 43.5573 53.1747 46.262 0.00110651 -0.00168947 -0.00199928
411 2 1 43.9056 56.0005 46.9941 -0.00113781 0.00260008 -0.00374665
263 1 2 35.3193 59.582 47.2432 -0.00636114 0.00241396 -0.0094685
585 3 1 45.6093 55.3759 47.0284 0.00422681 0.00106992 -0.00584491
546 2 2 23.2256 53.3898 45.5483 -0.0344025 -0.00245892 -0.010102
789 3 2 49.0713 59.808 39.1151 0.00804327 0.0098341 -0.0254574
550 2 2 50.3951 52.757 58.3703 0.00707124 -0.00764843 0.0153729
2379 9 1 51.066 51.5207 52.9888 0.00267367 -0.00606673 0.00289255
1294 5 1 46.1944 51.3867 50.022 0.00133771 -0.00462739 0.00164896
2301 9 1 51.5315 57.9048 45.9588 -4.74924e-05 0.000779174 0.00354568
1544 6 3 52.4132 57.8137 50.041 0.00242923 0.00335683 -0.00120857
863 4 4 45.4968 59.8533 48.8658 -0.00146158 0.00068112 0.000857808
2515 9 2 46.3213 1.99159 43.9496 -0.00313037 0.00739269 -0.00611479
1944 7 2 52.5278 59.9363 52.6055 -0.00480343 0.0159921 0.0189267
2532 9 2 56.4747 53.6746 49.4216 0.0123375 0.0166226 0.00812425
1072 4 2 42.2044 57.4624 39.4661 -0.011992 0.00595976 -0.0178466
1166 5 4 56.8145 56.176 47.3067 -0.00129927 -0.00329268 -0.000741216
224 1 2 53.1217 0.867805 48.1326 -0.0169356 0.0146019 0.00137598
1821 7 1 58.9551 57.8634 48.5476 0.00416506 0.0011927 0.00399297
993 4 3 52.4011 56.0941 49.816 -0.00102565 -0.000371581 0.00354688
212 1 1 55.3706 56.3723 46.5859 -0.0012697 0.00495304 -0.00349777
587 3 1 57.2417 57.313 45.8964 0 0 0
2595 10 1 59.3596 53.0661 50.8658 0.00124673 -0.00256847 -0.000488397
239 1 2 58.9503 3.24604 56.1084 -0.0304744 0.0180868 0.0144174
634 3 1 59.631 56.6712 55.0922 0.00442271 -0.00225814 0.00531993
1935 7 2 14.2015 14.9204 43.2269 0.0154969 0.0259123 -0.0306217
979 4 1 12.2798 1.00977 58.2933 0.00884457 -0.00349365 -0.00242781
2027 8 1 12.7067 1.11355 58.5327 0.00052591 -0.00580593 0.0022913
1457 6 1 11.7718 1.45714 56.7006 -0.00482055 -0.00210893 -0.00273669
1476 6 1 13.4339 1.73151 55.7836 0.000482243 0.00197209 0.00157783
1044 4 1 18.4656 0.693701 55.4086 -0.00193283 0.00112278 -0.00690555
2489 9 2 21.3801 4.52099 10.4765 0.00204359 -0.00291006 0.025194
2282 9 1 19.9414 7.93659 57.1673 -0.000672132 0.00173509 0.00248459
497 2 4 20.3435 1.18593 57.7528 0.0027923 -0.00299256 -0.000213378
429 2 3 19.7865 1.17495 54.3747 -0.00190748 -0.00217592 -0.00333466
2732 10 1 12.5483 9.24462 53.1868 -0.00912027 0.00391555 0.000215161
1797 7 4 18.6917 2.99396 58.0409 0.00212106 -0.00382222 0.00188881
103 1 3 17.007 6.11032 0.393006 0.00318482 -0.00161671 0.00282436
2093 8 1 17.9003 3.41125 0.90838 -0.000126376 -0.00623614 0.00418211
1668 6 2 22.7475 53.3723 0.0737832 0.00642396 -0.0188276 0.00122941
1079 4 2 28.6682 57.2809 45.4712 -0.00256513 -0.00719227 -0.01588
1106 4 2 23.6105 9.98771 42.088 -0.000775162 0.00682414 -0.0276968
1913 7 1 28.009 3.29877 53.2211 -4.92784e-05 0.00337686 -0.00239615
1670 6 2 24.9231 1.39874 51.5568 -0.00102696 0.00220582 -0.00246098
2504 9 2 48.3331 3.18015 42.9036 0.0359392 -0.0075943 -0.0304339
288 2 4 34.6001 3.91716 55.511 -0.00238736 -0.00195235 0.00101416
1479 6 1 29.8978 3.42587 52.6842 -0.00264214 -0.00433855 -0.00548376
478 2 1 31.4882 6.8455 56.6799 -9.96637e-05 -0.00102612 0.0015276
1144 5 4 35.232 4.2552 57.6495 -0.00175931 0.00429655 0.00097254
1154 5 1 40.2319 3.80255 58.3538 0.000160309 0.0052714 0.00143998
2356 9 1 41.5063 4.3269 54.2478 -0.00355445 0.00445906 -0.00290304
2457 9 1 47.9045 6.66833 57.7117 0.00272516 0.00139915 -0.00242538
2327 9 1 49.8364 5.15507 58.1565 -0.00246746 -0.000329284 -0.00146543
276 1 2 47.2918 4.08293 51.7539 -0.00472318 -0.0060438 -0.0164654
2362 9 1 50.3042 55.8592 53.2322 0.00324698 -0.00885439 -0.00644198
471 2 1 43.6019 8.93374 51.5391 -0.00314371 0.0037831 -0.00291012
1849 7 1 44.4811 1.77578 56.3093 -0.00516863 -0.00182126 0.00122704
1339 5 1 45.1189 57.5851 56.2273 -0.000571765 -0.00940839 0.00198914
2126 8 1 50.3091 7.66751 56.6743 -0.00486691 0.00374875 -0.00250151
1971 7 2 51.9274 1.98526 2.01923 -0.0187469 -2.45991e-05 0.00072936
680 3 4 56.483 6.5664 58.1777 0.00375028 0.0004635 -0.000232625
879 4 1 55.5817 3.67688 56.0441 -0.00329039 0.000322763 0.000250584
761 3 1 58.0647 6.26764 55.6754 0 0 0
5 1 1 54.4398 5.31477 58.5395 -0.00486734 -0.00146822 0.00300253
580 3 4 5.05068 12.7272 53.238 0.000401835 0.000301284 0.00446656
30 1 4 6.28964 16.1515 53.1429 0.00416547 0.000134591 -0.000655931
576 3 1 2.25714 14.5281 59.1961 0 0 0
110 1 1 6.96478 12.5374 55.517 0.00631916 -0.0014144 0.00348006
1291 5 1 11.5876 13.1334 56.8151 -0.00139636 0.00210452 -0.00260639
1907 7 4 14.3845 11.6184 56.8808 -0.000650276 -0.00109173 -0.00187113
685 3 1 9.89871 12.4259 58.1139 -0.0054473 0.000144529 0.000192075
1082 4 2 23.9514 8.26165 5.58334 0.00610601 -0.00471344 0.0184578
2010 8 1 28.5712 7.29706 58.0758 0.00185498 -0.00612687 0.00749214
52 1 4 26.2616 12.3955 50.9197 -0.00369642 0.0010162 -0.00394514
348 2 1 27.0983 6.49964 59.1828 -0.00170958 -0.00674411 0.00159782
1427 6 4 27.9521 13.218 1.71509 -0.00258588 0.00442455 0.00428005
1420 6 1 28.3388 13.687 53.2731 -0.00129754 -0.002264 -0.00656183
641 3 1 37.6004 12.7104 54.7233 0.00369876 -0.00191614 -0.00749676
430 2 4 35.3512 9.83522 54.1242 -0.00288042 -0.00217171 0.0027178
2511 9 2 38.9129 2.63288 55.7197 -0.00415823 -0.0102547 -0.0078136
1069 4 2 34.1663 16.276 47.4471 -0.0194128 0.0100887 -0.0240962
2652 10 1 39.0645 14.3768 53.7183 -0.00209246 0.00426611 -0.00111199
2000 8 1 45.8098 12.528 59.8078 0.00320087 -0.00103488 0.00320615
2283 9 1 36.8707 8.17908 0.337891 -0.00541426 -0.00371544 0.00231386
1332 5 4 39.4027 11.6924 59.2947 -0.000631462 -0.00330013 0.00231878
1711 7 1 41.3782 9.01809 56.0129 -0.00436027 -0.00487686 -0.000420064
431 2 4 50.6465 10.4431 57.7604 -0.00196143 0.000638532 -0.00166714
2674 10 1 48.8208 11.1516 52.8877 -0.00715932 -0.00152006 0.000993098
1699 7 1 46.0408 14.7085 3.70239 0.00143094 0.00389348 0.00771563
1271 5 1 53.3761 9.70239 53.8155 -0.00246123 0.000893171 -0.000341597
2739 10 1 51.0148 8.71318 59.0832 -0.00234839 0.000759601 0.00812772
751 3 1 47.089 10.8329 56.7818 -0.00257526 -0.00257916 -0.00149529
720 3 3 46.1328 12.2378 59.223 -0.000590156 -0.00438359 -0.00076032
253 1 2 57.9614 8.15608 53.9657 0.0136632 -0.00560419 -0.0382051
602 3 4 54.3518 8.51413 56.2094 -0.000606635 -0.00222303 0.00249497
1947 7 2 53.1947 12.7181 51.2671 8.09117e-06 0.00754465 -0.0147953
693 3 1 59.7174 13.1441 54.5312 0 0 0
770 3 1 59.6399 13.8623 55.0008 0 0 0
2726 10 1 54.6271 13.7122 54.5531 -0.00365693 -0.00581047 -0.000378977
507 2 2 59.746 24.2648 1.39451 -0.0212616 0.00733968 0.0397783
821 3 2 0.780311 27.6948 1.96933 -0.00209453 0.0105782 0.00869561
2177 8 1 4.58603 21.4315 54.1052 0.00142474 0.00355224 -0.0028365
298 2 4 0.115801 21.3195 56.5293 0 0 0
485 2 1 7.53513 22.4777 51.6562 0.00750147 -0.00398932 -0.00200881
524 2 2 9.54645 13.8024 2.61625 0.0125623 -0.00307477 -0.0135567
557 2 2 3.88597 21.0236 56.5283 -0.00687648 0.00545641 -0.00251142
341 2 3 10.4988 24.5561 53.4932 -0.0033061 0.00439489 0.00123417
82 1 4 13.0511 18.598 58.0656 -0.00273336 0.00447592 0.00124484
1776 7 1 9.98662 21.8973 51.6749 -0.00100267 0.0053029 -0.0040992
1043 4 1 15.6043 21.3944 50.221 0.00756441 0.000371155 -0.0085438
364 2 4 17.9294 22.0436 53.7278 0.00697194 0.00218142 -0.00297179
1780 7 1 12.068 17.2584 57.9935 -0.000893677 0.000311871 0.00125516
622 3 1 11.3066 16.6621 59.0954 -0.00357491 -0.00508191 0.00226899
869 4 1 18.9559 16.5657 57.7702 -0.00143249 -0.00301082 -0.00279334
1014 4 1 14.3075 17.2149 55.722 -0.00452066 0.00274356 0.00123789
2269 9 1 24.6934 12.111 47.1537 0.00512083 -0.0128306 -0.0110717
2159 8 1 22.6722 18.6409 49.8216 0.00103978 -0.00441241 -0.00652339
796 3 2 4.91852 13.2511 58.3044 0.0336835 -0.00610734 0.00663959
552 2 2 37.1899 25.9404 46.1918 0.016783 0.019936 -0.0198934
1531 6 1 28.6467 24.2874 55.8131 -0.0015733 0.00366307 -0.00706431
2317 9 4 27.2796 19.2345 55.5881 -1.91502e-05 0.00366092 0.00280121
1159 5 1 21.3592 18.4201 0.480193 -0.00356994 -0.00160161 0.00499809
13 1 1 22.8189 20.2057 53.8691 -0.00106121 0.00104405 0.000384565
1179 5 1 25.7013 21.771 50.2982 -0.00359357 0.00113138 -0.00485376
1620 6 1 24.89 22.6005 58.834 -0.00639359 0.0046398 0.00146504
2001 8 1 33.6894 20.3863 58.2662 0.00222275 -0.000508453 -0.00186207
923 4 1 33.0401 22.8333 55.1543 0.00289264 0.00475305 -0.00906117
604 3 1 38.7727 13.5813 0.652861 0.00863935 -0.00338893 0.0126791
2472 9 2 27.257 15.5462 54.5931 -0.0144617 -0.00223376 0.00344758
990 4 1 31.8211 18.5447 54.3828 -0.00210051 -0.00213222 -0.00499434
260 1 2 51.4374 16.0848 57.1171 -0.0115307 0.00781166 -0.0131344
2331 9 1 39.0627 18.782 50.9837 -0.00497244 0.00230683 -0.00666867
2041 8 1 40.6724 18.4932 55.4713 0.00498945 -0.00724378 -0.000557706
163 1 1 41.569 19.9019 51.5558 -0.00390377 -0.002647 -0.005448
247 1 2 47.7199 20.2777 48.185 -0.00319595 0.00646919 -0.0207269
719 3 1 47.3188 19.9942 59.6335 -3.02534e-05 0.00462818 0.00215292
730 3 1 45.4908 23.0146 56.3355 0.000212947 0.00509797 0.00185484
1060 4 3 51.6545 19.0898 53.1854 -0.00321793 0.00518758 0.00344382
2229 8 2 47.0147 9.52 57.2296 -0.00729538 -0.0135157 0.00565193
861 4 3 44.6491 17.9611 54.7028 -0.0017995 -0.00623736 -0.00452317
2598 10 4 41.7813 20.5651 55.1282 -0.00792099 -0.00342603 -0.00227469
2778 10 2 2.19986 15.853 59.823 0.0148922 0.000510388 0.00149685
240 1 2 56.5019 17.5691 0.378448 0.00226659 -0.0274829 0.00033073
2167 8 4 57.8642 18.1879 57.0478 0.0039841 0.000669174 0.0013352
575 3 1 53.9902 18.3035 52.9655 -0.00374513 -0.000970507 -6.72704e-05
1162 5 1 52.1843 17.6697 56.5345 -0.00226142 0.00278319 -0.000172155
2548 10 1 57.0448 15.0229 57.8774 0 0 0
2550 10 1 59.5183 16.4081 53.4371 0 0 0
2661 10 1 58.5426 15.186 56.3584 0 0 0
1603 6 4 57.3843 18.7272 54.1225 0 0 0
324 2 1 57.3942 19.7178 56.0894 0 0 0
771 3 1 58.3496 20.5525 59.8015 0 0 0
1903 7 1 56.1219 18.4262 53.3707 0.00328638 -0.000356983 0.000530484
230 1 2 54.5495 27.8016 55.5154 -0.00878869 0.020658 -0.0211604
1492 6 4 3.19481 23.9553 52.4685 -0.0019197 0.00726048 -0.00278698
1511 6 1 0.282906 25.7418 56.2939 -0.000801678 -0.00265298 0.00565552
1466 6 1 1.70939 25.5649 55.4087 0.0019915 0.00525904 0.00112357
814 3 2 57.044 37.136 39.0435 -0.00997865 0.0167763 -0.0286863
572 3 4 0.717497 23.1296 52.7629 0 0 0
1972 7 2 58.8823 19.8717 44.458 -0.00861401 -0.0102279 -0.0264846
570 3 4 3.05214 27.8074 55.2355 2.85402e-06 0.00779385 -0.00554418
2190 8 2 8.30891 30.5921 54.3856 0.034625 -0.00883728 -0.0183608
591 3 1 9.27417 28.5889 55.9529 0.00242187 -0.00195689 0.00409921
2285 9 1 18.9075 31.575 0.73024 -0.000846282 0.0036784 0.0124015
1746 7 1 16.851 27.1262 58.1184 -0.000690717 -0.0051059 0.0056446
220 1 1 15.1517 24.2609 57.5257 -0.0015589 0.000938951 7.24544e-05
997 4 1 13.5607 29.0793 51.3481 -0.00409721 0.00181881 -0.00362808
1866 7 1 18.7548 21.8375 59.6124 -0.00692791 -0.00300776 0.00385153
178 1 3 18.8547 25.3092 52.5319 0.00157491 -0.00652716 -0.00581836
2687 10 4 23.6471 20.8759 58.4607 0.00088945 -0.00378977 -0.00158203
866 4 1 28.1658 25.873 48.6307 0.00227567 0.00545042 -0.00901229
1201 5 1 25.5476 25.8736 59.8323 -0.00423635 0.00664974 0.00247363
1200 5 4 30.8556 32.7902 52.2166 0.00431585 0.00573875 -0.00161432
388 2 1 19.8685 31.9921 59.0235 -0.00560909 0.00438593 0.000168793
1147 5 1 32.0346 19.9531 55.6781 0.0064238 -0.00922838 0.000378823
717 3 1 25.6198 22.1931 54.3963 -0.0047576 -0.00362176 -3.53127e-05
2377 9 1 38.5201 24.251 53.1798 0.00209137 -0.0017992 -0.00704562
1023 4 1 33.1235 24.8423 53.9903 0.00013036 0.00315803 -0.00195558
1975 8 3 31.2159 25.376 53.2122 0.00148127 -0.000366239 -0.00129535
1540 6 1 37.8187 22.9558 52.0275 0.00467132 -0.00207615 -0.0067105
409 2 4 29.6641 25.7359 55.7655 -0.00347568 0.00270642 0.00164529
2042 8 3 35.5335 28.7487 55.4462 -0.0024779 0.00121276 -0.00337467
1481 6 1 32.4823 26.3702 53.2205 -9.44558e-05 -0.0057035 -0.00307684
2731 10 4 36.4136 27.5124 53.4984 -0.00471547 0.00667677 0.00101255
2396 9 4 38.3599 33.0448 55.7934 0.00153799 0.0089163 -0.00224964
1010 4 1 39.6463 26.0895 54.928 0.00109418 -0.00153452 -0.00222504
2555 10 4 42.4704 21.0135 54.0104 0.00253283 -0.00475404 -0.00154701
2662 10 1 42.3457 20.6311 57.7419 -0.01018 -0.00426827 -0.00308234
208 1 1 49.6846 23.2073 0.448343 0.00186444 0.000769544 0.00552467
1876 7 4 47.834 21.8652 0.460005 0.00287488 -0.00568231 0.0021656
1962 7 2 42.2188 28.6599 2.25643 -0.0114569 -0.00111951 0.00568833
2084 8 1 47.9935 25.9545 54.362 0.00188876 0.000327803 -0.0012216
1217 5 1 47.2624 24.7247 1.96903 -0.00551291 -0.00632639 0.00550647
339 2 1 51.7771 22.2463 59.5591 0.00238792 -0.00552373 -0.00361582
1081 4 2 56.6262 31.8365 53.7965 0.0146411 -0.00271585 0.0264311
1428 6 1 53.5596 29.2841 52.9328 -0.00637212 -0.00328858 0.00132341
2551 10 1 58.2117 25.2016 56.6867 0.00274644 0.00062237 -0.00207978
1490 6 1 58.3039 25.3549 58.0666 0 0 0
566 3 1 57.9225 24.6419 55.0545 0 0 0
1677 6 2 47.8231 25.5878 53.011 -0.0166939 -0.00677482 -0.0223243
2524 9 2 0.0330539 28.3157 3.8632 -0.00311789 -0.010618 0.0140959
2355 9 1 1.23253 30.6282 54.7225 0 0 0
690 3 4 5.68879 38.9327 53.3098 0.00136064 0.00365748 0.0025511
2500 9 2 9.21206 38.6166 54.2235 0.0180597 0.0413862 0.0350789
2181 8 1 15.9511 28.8661 57.1232 0.0112888 -0.00840772 0.000437663
742 3 3 18.0584 27.5274 57.6789 -0.00182445 -0.00895261 -0.00339673
1919 7 2 9.93649 27.9591 52.2927 -0.0227334 -0.00534431 -0.0136937
2655 10 1 18.8522 32.5797 54.4125 -0.000277101 -0.00842434 -0.00599884
935 4 1 21.7408 32.6074 54.971 -0.00138594 0.00470315 0.00156432
2542 10 1 21.7923 31.2462 57.3029 0.000593303 0.000615693 0.00374999
2433 9 1 19.8379 34.7047 57.0321 0.00161625 -0.000636808 0.00234587
1547 6 1 28.429 34.8836 53.5939 -0.00088272 0.00484669 -0.00733273
498 2 2 25.6781 48.151 1.98964 -0.000416953 0.0219888 0.015623
759 3 1 25.0069 35.7062 58.8611 0.00390107 0.00867869 0.00285149
2672 10 3 24.6715 36.2767 55.2425 0.0019044 0.0099486 -0.00382379
325 2 1 23.6462 30.5137 0.387658 -0.00245694 0.000736539 0.00669373
1340 5 1 28.9583 31.4659 54.4938 -0.00187685 0.00278023 0.00197311
1431 6 1 34.816 37.0921 59.9798 0.00998612 0.00340257 0.0044949
667 3 3 25.2418 38.6692 53.4002 -0.00254826 0.00540842 0.000213213
2224 8 2 27.4722 26.4881 58.5872 0.00271535 -0.0113546 0.002271
1883 7 3 31.412 30.7943 58.5629 0.00125168 0.000163144 -0.00250201
734 3 4 32.1614 38.3001 53.9596 0.00395 0.00428245 0.00289422
963 4 1 33.2584 29.1782 58.4104 0.00565388 -0.00466305 -0.000929054
142 1 1 31.8402 34.8034 56.2782 -0.000410542 0.00145083 -0.00343215
904 4 1 36.2105 30.4271 55.9782 0.000861642 -0.00106887 0.00170025
191 1 3 41.8818 28.7536 56.2987 -0.00151817 -0.00279637 -0.000481145
644 3 1 38.0439 36.5833 57.3535 -0.00432191 0.00101964 0.00117583
744 3 1 38.5809 31.9933 54.1771 -0.000134565 -0.00373813 0.00104409
2651 10 1 41.3616 38.3447 57.9375 -0.0044221 0.00343504 -0.000312905
1597 6 1 49.3449 35.0601 2.08567 0.00869496 0.000677153 0.0107839
2191 8 1 47.2041 32.9297 0.352965 -0.00415469 0.00540655 0.00159323
912 4 1 49.2952 32.7923 56.0045 0.00167394 -0.000617173 -0.00305812
2694 10 3 44.7436 34.028 51.5151 -0.00223186 -0.00134888 -0.00225161
2654 10 4 51.404 32.1005 57.9436 0.00033585 -0.00424708 -3.37378e-05
1360 5 2 58.7174 35.185 57.1313 0.0162261 0.0134586 -0.00307596
210 1 1 53.154 30.224 57.1914 0.000946998 0.00146268 0.00037838
2056 8 4 56.0883 30.6668 57.6839 -3.72022e-05 -0.000431789 0.000663357
2210 8 2 7.02732 34.4171 53.8111 -0.0393992 -0.0042706 0.0132368
1791 7 1 54.2164 34.0175 53.8292 0.000164152 -0.00247719 0.00446643
658 3 4 58.8648 30.4105 54.2891 0 0 0
673 3 1 58.0161 34.4014 59.2004 0 0 0
272 1 2 58.3429 51.6914 57.0934 -0.00449664 0.0141679 0.00836863
1033 4 1 10.1415 41.0223 55.8925 -0.00216148 0.00439618 -0.00194372
898 4 4 13.7948 41.6778 54.8413 0.00123966 -0.00193575 -0.0044716
1449 6 4 10.2271 46.1461 59.6612 -0.00160271 0.00549689 0.00350386
640 3 1 12.129 49.6293 57.5906 0.00588007 0.0163821 -0.00185816
1893 7 1 13.8215 43.5173 54.5546 0.00192304 -0.0019457 -0.00268031
947 4 1 15.8727 39.9171 58.0812 -0.00239194 -0.00431383 -0.00280279
358 2 1 15.4266 39.2546 55.4833 -0.00232579 0.00047757 -0.00372582
684 3 1 23.9805 41.7241 1.45395 0.0042222 -0.00166788 0.00825595
1276 5 4 17.1313 39.3178 58.6226 -0.00147686 -0.000343293 0.00187557
665 3 1 19.2825 42.7189 55.9916 -0.00574107 0.00303832 -0.000516985
1768 7 1 18.8952 39.5846 54.9778 -0.00440654 -0.00497829 0.00078444
362 2 1 26.3793 42.7378 53.6287 -0.00132814 0.000729984 -0.0088345
152 1 1 31.6403 39.6522 57.9337 0.00850137 0.00036242 0.00999523
810 3 2 25.8108 37.5567 54.2584 0.00473635 -0.000310272 0.000899615
2164 8 1 23.6165 38.971 57.6231 0.00122292 -0.0029028 -0.000863109
1795 7 3 25.0945 40.7172 57.0579 -0.00443147 0.00316986 0.001992
2647 10 1 21.0431 43.4871 1.58317 -0.00480606 0.000169509 0.00346818
2318 9 1 24.4569 41.8242 57.3069 -0.000177208 -0.00415607 0.00316295
1641 6 2 22.0692 37.8848 54.2556 -0.00389752 -0.00838501 0.000211894
573 3 1 27.1074 37.4096 2.71315 -0.0023286 -0.00765675 0.00576705
2071 8 1 24.3446 43.1986 53.6596 -0.00478818 -0.00221002 -0.00180229
1687 6 2 28.9341 47.8302 7.69974 -0.0110319 0.00713266 0.0175078
1272 5 1 29.9787 40.8845 57.3085 -0.00323544 0.00611829 0.00399446
1770 7 1 32.2018 44.5062 52.0522 -0.00262647 0.00113621 -0.00671989
1111 4 2 28.8411 31.0264 1.45202 -0.00701565 -0.0136215 0.00781887
1334 5 1 40.5886 45.1509 56.0382 0.00719566 0.00766884 -0.00241917
1598 6 1 36.172 40.4194 49.0546 -0.000712803 0.000960273 -0.00707971
1316 5 1 34.6409 38.4035 59.8403 -0.000416972 -0.00113532 0.00271115
484 2 1 30.9712 42.7908 57.1658 -0.00566678 -0.000244811 -0.000792181
1080 4 2 37.7151 24.8201 51.0282 0.00441375 -0.0342714 -0.0066958
554 2 2 47.5006 42.1803 8.36037 0.0173992 0.00695103 0.0173165
540 2 2 41.5122 46.949 2.37151 0.000361693 0.00644472 0.0113246
1 1 3 41.8196 38.8528 55.221 -0.0042175 0.00270987 0.000489358
1542 6 1 41.3349 36.342 1.91626 -0.00235166 -0.00378027 0.00539264
2373 9 1 46.385 37.4798 5.0363 0.00383071 -0.0121352 0.0110999
1199 5 1 48.7495 43.1493 48.8415 0.0054822 0.00567372 -0.0142194
346 2 1 46.4245 42.4277 51.8645 -0.000242118 0.000987013 -0.00853228
1387 5 2 47.8466 47.4295 45.919 0.000748446 0.00507764 -0.0183282
2230 8 2 52.6871 41.3753 56.2528 0.00101931 -0.00859568 0.016341
2663 10 3 50.2034 44.5404 54.072 -0.00259085 -7.32649e-05 0.00122399
46 1 3 50.6938 43.1463 55.1081 0.000458544 0.00278618 0.00165297
1333 5 4 50.8916 43.208 1.16862 -0.000187044 0.00368495 0.00251947
1352 5 2 46.9483 39.6059 56.8372 -0.00520274 0.00116798 -0.00190991
2243 8 2 42.8304 31.9423 4.41137 -0.0269526 -0.0173605 0.0248539
982 4 1 57.7058 45.904 0.294467 0.00561407 -0.00120412 0.00166457
138 1 4 51.9757 43.8029 55.1004 0.0057069 0.000952926 -0.00168092
2718 10 1 54.8178 42.5103 55.8985 -0.00298005 -0.00559131 -0.00407285
1607 6 1 52.1403 38.1119 59.0392 -0.00126919 -0.00140109 2.15507e-05
708 3 1 57.908 38.2719 55.8636 0 0 0
2099 8 3 58.2631 40.0689 0.609564 -0.00125177 -0.00643864 0.00289666
2299 9 1 6.13574 51.0561 53.0973 0.00359543 -0.00415137 -0.001482
126 1 4 5.98943 50.9949 57.6396 0.00428702 -0.000472032 -0.0042237
1497 6 1 6.71271 50.885 55.6738 -0.00410451 0.00550791 -0.00061662
1093 4 2 12.4805 3.44063 48.446 0.00493432 0.0280126 -0.0149042
222 1 2 21.798 37.6398 13.4319 0.0215797 -0.0180407 0.0275645
1557 6 3 8.79932 45.2209 58.8388 -0.00441714 0.00953903 0.00395362
99 1 1 11.2177 52.9832 50.5408 -0.00244419 0.00693537 -0.00484673
1004 4 1 10.5139 49.7347 1.57112 -0.00506931 -0.00086675 0.0037162
1727 7 1 6.13427 51.8019 58.6523 -0.0111191 0.0016112 0.000530373
793 3 2 15.5483 47.7604 54.0287 -0.00493127 0.00101547 -0.00721722
1088 4 2 23.6733 46.2447 7.42475 0.00757569 -0.00225196 0.0169764
723 3 1 19.7234 47.6242 57.734 -0.00196717 0.0021097 0.00686504
162 1 4 18.6128 45.394 1.36106 -0.0033012 -0.00196379 0.00295271
2304 9 1 19.7827 47.0565 57.8327 0.00531245 -0.00697928 0.000570545
2314 9 1 19.2057 49.1396 49.8677 -0.000726262 -0.00358235 -0.00718442
361 2 1 29.0428 45.6558 56.174 0.00299347 -0.00689869 0.00384822
1459 6 1 26.1695 53.3566 50.93 0.0032843 0.0117367 -0.00536526
1143 5 3 27.6498 46.9563 53.9521 0.00630693 -0.00264092 -0.00423133
651 3 1 24.8419 46.721 52.2828 0.00233814 -0.00124737 -0.00637924
146 1 1 26.2074 46.0263 54.8352 0.00236777 0.000699324 0.00120938
1320 5 4 21.808 53.9665 52.4299 -0.00159304 0.00503068 -0.00287889
1441 6 1 31.7476 45.8309 53.8717 0.00438809 -0.00296147 -0.00278684
1027 4 1 22.2483 47.2795 0.264194 -0.00101342 0.000135719 0.00325114
2734 10 1 30.9007 50.1984 53.2368 -0.00366243 0.0026518 0.00127622
2350 9 4 38.3311 48.054 58.2026 0.00211913 0.00546968 -0.00103827
1758 7 1 29.0347 43.8117 55.8222 -0.00351762 -0.0032022 0.00276218
1186 5 1 39.5043 46.3749 59.8365 0.00809182 -0.001305 0.00241968
1262 5 3 32.3083 47.9528 52.9439 -0.000709819 6.57467e-05 -0.00332817
1823 7 1 32.0809 50.0307 0.293602 -0.00255306 0.00200671 0.00321585
2503 9 2 40.0474 47.2371 1.5415 -0.00889834 -0.000932887 0.00922925
380 2 1 38.3807 53.1235 59.9017 4.33347e-05 0.001801 0.000660376
586 3 1 37.5071 45.9165 53.6153 -0.00309557 -0.00337706 0.000162431
2480 9 2 53.9543 43.4643 48.9577 0.0161371 0.015343 -0.010011
1792 7 1 49.3127 50.9222 0.180874 -0.000591705 0.000716441 0.0111879
1451 6 1 47.98 50.4912 54.4673 -0.00598963 0.00156552 0.0039411
1464 6 1 51.9987 46.7726 53.7895 0.00236513 0.00100454 -0.00156352
2671 10 1 52.1748 51.058 56.9849 0.00665677 0.0028875 -0.00365007
1745 7 1 50.7827 43.2999 52.355 0.0045272 -0.0045939 -0.00518329
876 4 4 46.3246 51.7494 55.6645 0.000955489 0.00463275 0.00195972
2300 9 1 50.6962 44.8238 51.8241 -0.0026872 -0.00154172 -0.00127014
2656 10 4 44.5465 49.031 55.998 -0.0042182 -0.00112094 -0.00214047
2804 10 2 40.389 49.205 57.0591 -0.011751 -0.00582568 0.000602354
1601 6 3 55.8684 49.1861 54.7388 0.00047065 0.000466042 -6.5951e-05
382 2 1 57.6127 43.4815 53.7529 -0.00449372 -0.00691509 0.000225682
2643 10 4 53.2776 52.229 55.2341 0.00301579 -0.00168887 0.000471297
919 4 1 54.6193 46.8655 58.5843 -0.00569407 -0.000100534 -0.00244271
2547 10 1 52.4818 49.0962 51.4696 -0.00614267 0.00544809 -0.00452614
166 1 1 53.7149 49.6359 58.5491 0.000270772 0.00716613 0.004474
2147 8 1 56.2579 47.7101 58.5154 0.00322819 0.00570203 -7.24132e-05
2197 8 2 59.5921 48.3227 59.9145 0 0 0
2808 10 2 58.6774 53.3532 41.7229 0.0191808 -0.00470482 0.00680721
244 1 2 1.57366 53.7658 57.1702 0 0 0
1976 8 1 5.90262 53.1976 56.1019 -0.00293808 0.00459029 -0.0117374
45 1 1 11.8263 51.1571 57.0149 -0.00261014 -0.00608423 -0.00305649
860 4 1 13.0229 57.8415 55.4377 -0.00227569 -0.00438164 -0.00282811
209 1 1 7.9725 58.2532 53.9074 0.00125255 -0.00370745 -0.00249712
442 2 4 21.1224 57.9354 57.8964 0.00568545 -0.00280273 -0.0016594
2440 9 4 20.7211 56.9235 55.1442 0.00157491 -0.00229006 -0.00298771
1039 4 4 15.9781 57.2077 57.4185 -0.00184399 0.000718536 -0.00166836
1706 7 1 27.0608 56.0651 53.2207 0.00207535 0.00286379 -0.00786546
2659 10 1 33.4027 56.939 50.9246 0.00810882 -1.44648e-05 -0.0103415
1996 8 1 27.5651 55.3606 59.2733 -0.0033391 0.00444353 -0.000128231
2637 10 1 21.0401 59.6279 56.6967 -0.00538727 -0.000134987 -0.00313947
1452 6 1 28.3289 56.0815 1.63687 -2.48532e-06 0.00127572 0.00348207
1857 7 1 38.7594 54.3262 54.4495 0.0123399 -0.00288023 -0.00593282
2237 8 2 29.221 58.6955 54.2493 -0.00261426 0.0022846 -0.00916926
1104 4 2 36.2372 52.9231 6.28087 0.00866641 -0.00414424 0.0253997
2186 8 1 33.9905 54.1056 54.9414 0.0017854 0.00224588 0.00415251
1156 5 4 30.2156 57.469 53.3 -0.0025147 -0.00287808 0.000790043
772 3 1 30.4977 59.2316 59.7334 -0.00129466 -0.00138091 0.000416594
112 1 3 35.1559 50.7956 56.622 -0.00209357 -0.00511758 -0.001664
2078 8 4 44.3898 57.1749 57.5106 0.00130535 -0.00189089 0.00365877
2399 9 1 36.7139 54.9126 52.3997 -0.00308319 -0.00230407 -0.00299341
2262 9 4 41.8057 57.1011 53.2236 -0.00541202 -0.00172236 -0.000366333
2330 9 4 48.6256 54.6784 57.972 -0.00241991 -0.00376353 -0.00311343
2809 10 2 49.8996 0.759747 60.026 -0.00271544 0.00400627 0.00867115
2441 9 1 51.4668 55.2686 54.9966 0.000737358 -0.00486702 0.00444728
1833 7 1 48.2303 56.68 56.1319 -0.00155465 0.00164056 0.00255861
1698 7 4 50.1522 57.6517 54.4378 0.00152994 -0.00214731 -0.00253657
64 1 1 47.6784 58.3715 58.6101 -0.000791726 -0.0015877 0.00206908
2343 9 1 44.5561 54.2611 57.4159 -0.00304311 -0.00347648 0.000951808
1175 5 1 52.1798 56.7451 55.681 -0.00432333 0.00123979 -0.000991792
555 2 2 2.15963 57.7052 53.9398 0.0190798 -0.00138706 -0.0135829
1536 6 4 54.6221 55.4684 59.0571 -0.00330303 0.000728621 -0.000441605
337 2 1 52.178 57.2383 58.6468 -0.00222286 0.00176375 -0.00485361
48 1 1 50.2571 57.3455 57.3089 -0.00752848 -0.000390034 -0.0049223
305 2 1 58.5878 56.0935 53.8533 0 0 0
